 vasp.5.4.4.18Apr17-6-g9f103f2a35 (build Apr 28 2017 10:40:22) complex

 executed on Intel-16.0.3.210-OMP date 2018.10.24  15:46:27

 INCAR:
 POTCAR:    PAW Al_GW 19Mar2012
 POTCAR:    PAW Al_GW 19Mar2012
   VRHFIN =Al: s2p1

   TITEL  = PAW Al_GW 19Mar2012
   POMASS =   26.982; ZVAL   =    3.000    mass and valenz
   ENMAX  =  240.300; ENMIN  =  180.225 eV

 Optimization of the real space projectors (new method)

 maximal supplied QI-value         = 18.90
 optimisation between [QCUT,QGAM] = [  8.69, 17.57] = [ 21.16, 86.49] Ry
 Optimized for a Real-space Cutoff    1.59 Angstroem

   l    n(q)    QCUT    max X(q) W(low)/X(q) W(high)/X(q)  e(spline)
   0      8     8.693    11.519    0.12E-03    0.31E-04    0.21E-06
   0      8     8.693     5.834    0.89E-04    0.32E-04    0.16E-06
   1      8     8.693    10.132    0.25E-03    0.39E-03    0.25E-06
   1      8     8.693     3.004    0.16E-03    0.27E-03    0.22E-06
   2      7     8.693     3.169    0.39E-03    0.93E-03    0.44E-06
   2      7     8.693     1.605    0.70E-04    0.91E-04    0.19E-06
  PAW Al_GW 19Mar2012                   :

 POSCAR: New structure
  positions in cartesian coordinates
 exchange correlation table for  LEXCH =        8
   RHO(1)=    0.500       N(1)  =     2000
   RHO(2)=  100.500       N(2)  =     4000

 ion  position               nearest neighbor table
   1  0.333  0.667  0.000-
   2  0.667  0.333  0.500-

  LATTYP: Found a hexagonal cell.
 ALAT       =     3.1120000000
 C/A-ratio  =     1.6008997429

  Lattice vectors:

 A1 = (   3.1120000000,   0.0000000000,   0.0000000000)
 A2 = (  -1.5560000000,   2.6950710566,   0.0000000000)
 A3 = (   0.0000000000,   0.0000000000,   4.9820000000)

Analysis of symmetry for initial positions (statically):
 Subroutine PRICEL returns:
 Original cell was already a primitive cell.

 Routine SETGRP: Setting up the symmetry group for a
 hexagonal supercell.

 Subroutine GETGRP returns: Found 24 space group operations
 (whereof 12 operations were pure point group operations)
 out of a pool of 24 trial point group operations.

The static configuration has the point symmetry D_3h.
 The point group associated with its full space group is D_6h.

Analysis of symmetry for dynamics (positions and initial velocities):
 Subroutine PRICEL returns:
 Original cell was already a primitive cell.

 Routine SETGRP: Setting up the symmetry group for a
 hexagonal supercell.

 Subroutine GETGRP returns: Found 24 space group operations
 (whereof 12 operations were pure point group operations)
 out of a pool of 24 trial point group operations.

The dynamic configuration has the point symmetry D_3h.
 The point group associated with its full space group is D_6h.

 Subroutine INISYM returns: Found 24 space group operations
 (whereof 12 operations are pure point group operations),
 and found     1 'primitive' translations

 KPOINTS: Automatic generation

Automatic generation of k-mesh.
Space group operators:
 irot       det(A)        alpha          n_x          n_y          n_z        tau_x        tau_y        tau_z
    1     1.000000     0.000000     1.000000     0.000000     0.000000     0.000000     0.000000     0.000000
    2    -1.000000    60.000000     0.000000     0.000000    -1.000000     0.000000     0.000000     0.000000
    3     1.000000   120.000000     0.000000     0.000000    -1.000000     0.000000     0.000000     0.000000
    4    -1.000000   180.000000     0.000000     0.000000     1.000000     0.000000     0.000000     0.000000
    5     1.000000   120.000000     0.000000     0.000000     1.000000     0.000000     0.000000     0.000000
    6    -1.000000    60.000000     0.000000     0.000000     1.000000     0.000000     0.000000     0.000000
    7    -1.000000   180.000000     1.000000    -0.000000     0.000000     0.000000     0.000000     0.000000
    8     1.000000   180.000000     0.866025    -0.500000     0.000000     0.000000     0.000000     0.000000
    9    -1.000000   179.999999     0.500000    -0.866025     0.000000     0.000000     0.000000     0.000000
   10     1.000000   180.000000     0.000000     1.000000     0.000000     0.000000     0.000000     0.000000
   11    -1.000000   180.000000    -0.500000    -0.866025     0.000000     0.000000     0.000000     0.000000
   12     1.000000   180.000000     0.866025     0.500000     0.000000     0.000000     0.000000     0.000000
   13    -1.000000     0.000000     1.000000     0.000000     0.000000     0.000000     0.000000     0.500000
   14     1.000000    60.000000     0.000000     0.000000    -1.000000     0.000000     0.000000     0.500000
   15    -1.000000   120.000000     0.000000     0.000000    -1.000000    -0.000000     0.000000     0.500000
   16     1.000000   180.000000     0.000000     0.000000     1.000000     0.000000     0.000000     0.500000
   17    -1.000000   120.000000     0.000000     0.000000     1.000000     0.000000     0.000000     0.500000
   18     1.000000    60.000000     0.000000     0.000000     1.000000    -0.000000     0.000000     0.500000
   19     1.000000   180.000000     1.000000    -0.000000     0.000000     0.000000     0.000000     0.500000
   20    -1.000000   180.000000     0.866025    -0.500000     0.000000     0.000000     0.000000     0.500000
   21     1.000000   179.999999     0.500000    -0.866025     0.000000    -0.000000     0.000000     0.500000
   22    -1.000000   180.000000     0.000000     1.000000     0.000000     0.000000     0.000000     0.500000
   23     1.000000   180.000000    -0.500000    -0.866025     0.000000     0.000000     0.000000     0.500000
   24    -1.000000   180.000000     0.866025     0.500000     0.000000    -0.000000     0.000000     0.500000

 Subroutine IBZKPT returns following result:

 Found     56 irreducible k-points:

 Following reciprocal coordinates:
            Coordinates               Weight
  0.000000  0.000000  0.000000      1.000000
  0.100000  0.000000  0.000000      6.000000
  0.200000  0.000000  0.000000      6.000000
  0.300000 -0.000000  0.000000      6.000000
  0.400000  0.000000  0.000000      6.000000
  0.500000  0.000000  0.000000      3.000000
  0.100000  0.100000  0.000000      6.000000
  0.200000  0.100000  0.000000     12.000000
  0.300000  0.100000  0.000000     12.000000
  0.400000  0.100000  0.000000     12.000000
  0.200000  0.200000  0.000000      6.000000
  0.300000  0.200000  0.000000     12.000000
  0.400000  0.200000  0.000000      6.000000
  0.300000  0.300000  0.000000      6.000000
  0.000000  0.000000  0.166667      2.000000
  0.100000  0.000000  0.166667     12.000000
  0.200000  0.000000  0.166667     12.000000
  0.300000 -0.000000  0.166667     12.000000
  0.400000  0.000000  0.166667     12.000000
  0.500000  0.000000  0.166667      6.000000
  0.100000  0.100000  0.166667     12.000000
  0.200000  0.100000  0.166667     24.000000
  0.300000  0.100000  0.166667     24.000000
  0.400000  0.100000  0.166667     24.000000
  0.200000  0.200000  0.166667     12.000000
  0.300000  0.200000  0.166667     24.000000
  0.400000  0.200000  0.166667     12.000000
  0.300000  0.300000  0.166667     12.000000
  0.000000  0.000000  0.333333      2.000000
  0.100000  0.000000  0.333333     12.000000
  0.200000  0.000000  0.333333     12.000000
  0.300000 -0.000000  0.333333     12.000000
  0.400000  0.000000  0.333333     12.000000
  0.500000  0.000000  0.333333      6.000000
  0.100000  0.100000  0.333333     12.000000
  0.200000  0.100000  0.333333     24.000000
  0.300000  0.100000  0.333333     24.000000
  0.400000  0.100000  0.333333     24.000000
  0.200000  0.200000  0.333333     12.000000
  0.300000  0.200000  0.333333     24.000000
  0.400000  0.200000  0.333333     12.000000
  0.300000  0.300000  0.333333     12.000000
  0.000000  0.000000  0.500000      1.000000
  0.100000  0.000000  0.500000      6.000000
  0.200000  0.000000  0.500000      6.000000
  0.300000 -0.000000  0.500000      6.000000
  0.400000  0.000000  0.500000      6.000000
  0.500000  0.000000  0.500000      3.000000
  0.100000  0.100000  0.500000      6.000000
  0.200000  0.100000  0.500000     12.000000
  0.300000  0.100000  0.500000     12.000000
  0.400000  0.100000  0.500000     12.000000
  0.200000  0.200000  0.500000      6.000000
  0.300000  0.200000  0.500000     12.000000
  0.400000  0.200000  0.500000      6.000000
  0.300000  0.300000  0.500000      6.000000

 Following cartesian coordinates:
            Coordinates               Weight
  0.000000  0.000000  0.000000      1.000000
  0.032134  0.018552  0.000000      6.000000
  0.064267  0.037105  0.000000      6.000000
  0.096401  0.055657  0.000000      6.000000
  0.128535  0.074210  0.000000      6.000000
  0.160668  0.092762  0.000000      3.000000
  0.032134  0.055657  0.000000      6.000000
  0.064267  0.074210  0.000000     12.000000
  0.096401  0.092762  0.000000     12.000000
  0.128535  0.111314  0.000000     12.000000
  0.064267  0.111314  0.000000      6.000000
  0.096401  0.129867  0.000000     12.000000
  0.128535  0.148419  0.000000      6.000000
  0.096401  0.166971  0.000000      6.000000
  0.000000  0.000000  0.033454      2.000000
  0.032134  0.018552  0.033454     12.000000
  0.064267  0.037105  0.033454     12.000000
  0.096401  0.055657  0.033454     12.000000
  0.128535  0.074210  0.033454     12.000000
  0.160668  0.092762  0.033454      6.000000
  0.032134  0.055657  0.033454     12.000000
  0.064267  0.074210  0.033454     24.000000
  0.096401  0.092762  0.033454     24.000000
  0.128535  0.111314  0.033454     24.000000
  0.064267  0.111314  0.033454     12.000000
  0.096401  0.129867  0.033454     24.000000
  0.128535  0.148419  0.033454     12.000000
  0.096401  0.166971  0.033454     12.000000
  0.000000  0.000000  0.066908      2.000000
  0.032134  0.018552  0.066908     12.000000
  0.064267  0.037105  0.066908     12.000000
  0.096401  0.055657  0.066908     12.000000
  0.128535  0.074210  0.066908     12.000000
  0.160668  0.092762  0.066908      6.000000
  0.032134  0.055657  0.066908     12.000000
  0.064267  0.074210  0.066908     24.000000
  0.096401  0.092762  0.066908     24.000000
  0.128535  0.111314  0.066908     24.000000
  0.064267  0.111314  0.066908     12.000000
  0.096401  0.129867  0.066908     24.000000
  0.128535  0.148419  0.066908     12.000000
  0.096401  0.166971  0.066908     12.000000
  0.000000  0.000000  0.100361      1.000000
  0.032134  0.018552  0.100361      6.000000
  0.064267  0.037105  0.100361      6.000000
  0.096401  0.055657  0.100361      6.000000
  0.128535  0.074210  0.100361      6.000000
  0.160668  0.092762  0.100361      3.000000
  0.032134  0.055657  0.100361      6.000000
  0.064267  0.074210  0.100361     12.000000
  0.096401  0.092762  0.100361     12.000000
  0.128535  0.111314  0.100361     12.000000
  0.064267  0.111314  0.100361      6.000000
  0.096401  0.129867  0.100361     12.000000
  0.128535  0.148419  0.100361      6.000000
  0.096401  0.166971  0.100361      6.000000

 SYSTEM =  NiAl
 POSCAR =  New structure

 Startparameter for this run:
   NWRITE =      2    write-flag & timer
   PREC   = normal    normal or accurate (medium, high low for compatibility)
[...]
   0.06426735  0.03710477  0.00000000       0.010
   0.09640103  0.05565716  0.00000000       0.010
   0.12853470  0.07420955  0.00000000       0.010
   0.16066838  0.09276193  0.00000000       0.005
   0.03213368  0.05565716  0.00000000       0.010
   0.06426735  0.07420955  0.00000000       0.020
   0.09640103  0.09276193  0.00000000       0.020
   0.12853470  0.11131432  0.00000000       0.020
   0.06426735  0.11131432  0.00000000       0.010
   0.09640103  0.12986671  0.00000000       0.020
   0.12853470  0.14841909  0.00000000       0.010
   0.09640103  0.16697148  0.00000000       0.010
   0.00000000  0.00000000  0.03345377       0.003
   0.03213368  0.01855239  0.03345377       0.020
   0.06426735  0.03710477  0.03345377       0.020
   0.09640103  0.05565716  0.03345377       0.020
   0.12853470  0.07420955  0.03345377       0.020
   0.16066838  0.09276193  0.03345377       0.010
   0.03213368  0.05565716  0.03345377       0.020
   0.06426735  0.07420955  0.03345377       0.040
   0.09640103  0.09276193  0.03345377       0.040
   0.12853470  0.11131432  0.03345377       0.040
   0.06426735  0.11131432  0.03345377       0.020
   0.09640103  0.12986671  0.03345377       0.040
   0.12853470  0.14841909  0.03345377       0.020
   0.09640103  0.16697148  0.03345377       0.020
   0.00000000  0.00000000  0.06690753       0.003
   0.03213368  0.01855239  0.06690753       0.020
   0.06426735  0.03710477  0.06690753       0.020
   0.09640103  0.05565716  0.06690753       0.020
   0.12853470  0.07420955  0.06690753       0.020
   0.16066838  0.09276193  0.06690753       0.010
   0.03213368  0.05565716  0.06690753       0.020
   0.06426735  0.07420955  0.06690753       0.040
   0.09640103  0.09276193  0.06690753       0.040
   0.12853470  0.11131432  0.06690753       0.040
   0.06426735  0.11131432  0.06690753       0.020
   0.09640103  0.12986671  0.06690753       0.040
   0.12853470  0.14841909  0.06690753       0.020
   0.09640103  0.16697148  0.06690753       0.020
   0.00000000  0.00000000  0.10036130       0.002
   0.03213368  0.01855239  0.10036130       0.010
   0.06426735  0.03710477  0.10036130       0.010
   0.09640103  0.05565716  0.10036130       0.010
   0.12853470  0.07420955  0.10036130       0.010
   0.16066838  0.09276193  0.10036130       0.005
   0.03213368  0.05565716  0.10036130       0.010
   0.06426735  0.07420955  0.10036130       0.020
   0.09640103  0.09276193  0.10036130       0.020
   0.12853470  0.11131432  0.10036130       0.020
   0.06426735  0.11131432  0.10036130       0.010
   0.09640103  0.12986671  0.10036130       0.020
   0.12853470  0.14841909  0.10036130       0.010
   0.09640103  0.16697148  0.10036130       0.010

 k-points in reciprocal lattice and weights: Automatic generation
   0.00000000  0.00000000  0.00000000       0.002
   0.10000000  0.00000000  0.00000000       0.010
   0.20000000  0.00000000  0.00000000       0.010
   0.30000000 -0.00000000  0.00000000       0.010
   0.40000000  0.00000000  0.00000000       0.010
   0.50000000  0.00000000  0.00000000       0.005
   0.10000000  0.10000000  0.00000000       0.010
   0.20000000  0.10000000  0.00000000       0.020
   0.30000000  0.10000000  0.00000000       0.020
   0.40000000  0.10000000  0.00000000       0.020
   0.20000000  0.20000000  0.00000000       0.010
   0.30000000  0.20000000  0.00000000       0.020
   0.40000000  0.20000000  0.00000000       0.010
   0.30000000  0.30000000  0.00000000       0.010
   0.00000000  0.00000000  0.16666667       0.003
   0.10000000  0.00000000  0.16666667       0.020
   0.20000000  0.00000000  0.16666667       0.020
   0.30000000 -0.00000000  0.16666667       0.020
   0.40000000  0.00000000  0.16666667       0.020
   0.50000000  0.00000000  0.16666667       0.010
   0.10000000  0.10000000  0.16666667       0.020
   0.20000000  0.10000000  0.16666667       0.040
   0.30000000  0.10000000  0.16666667       0.040
   0.40000000  0.10000000  0.16666667       0.040
   0.20000000  0.20000000  0.16666667       0.020
   0.30000000  0.20000000  0.16666667       0.040
   0.40000000  0.20000000  0.16666667       0.020
   0.30000000  0.30000000  0.16666667       0.020
   0.00000000  0.00000000  0.33333333       0.003
   0.10000000  0.00000000  0.33333333       0.020
   0.20000000  0.00000000  0.33333333       0.020
   0.30000000 -0.00000000  0.33333333       0.020
   0.40000000  0.00000000  0.33333333       0.020
   0.50000000  0.00000000  0.33333333       0.010
   0.10000000  0.10000000  0.33333333       0.020
   0.20000000  0.10000000  0.33333333       0.040
   0.30000000  0.10000000  0.33333333       0.040
   0.40000000  0.10000000  0.33333333       0.040
   0.20000000  0.20000000  0.33333333       0.020
   0.30000000  0.20000000  0.33333333       0.040
   0.40000000  0.20000000  0.33333333       0.020
   0.30000000  0.30000000  0.33333333       0.020
   0.00000000  0.00000000  0.50000000       0.002
   0.10000000  0.00000000  0.50000000       0.010
   0.20000000  0.00000000  0.50000000       0.010
   0.30000000 -0.00000000  0.50000000       0.010
   0.40000000  0.00000000  0.50000000       0.010
   0.50000000  0.00000000  0.50000000       0.005
   0.10000000  0.10000000  0.50000000       0.010
   0.20000000  0.10000000  0.50000000       0.020
   0.30000000  0.10000000  0.50000000       0.020
   0.40000000  0.10000000  0.50000000       0.020
   0.20000000  0.20000000  0.50000000       0.010
   0.30000000  0.20000000  0.50000000       0.020
   0.40000000  0.20000000  0.50000000       0.010
   0.30000000  0.30000000  0.50000000       0.010

 position of ions in fractional coordinates (direct lattice)
   0.33333333  0.66666667  0.00000000
   0.66666667  0.33333333  0.50000000

 position of ions in cartesian coordinates  (Angst):
   0.00000000  1.79671404  0.00000000
   1.55600000  0.89835702  2.49100000

 k-point  1 :   0.0000 0.0000 0.0000  plane waves:     513
 k-point  2 :   0.1000 0.0000 0.0000  plane waves:     507
 k-point  3 :   0.2000 0.0000 0.0000  plane waves:     498
 k-point  4 :   0.3000-0.0000 0.0000  plane waves:     484
 k-point  5 :   0.4000 0.0000 0.0000  plane waves:     484
 k-point  6 :   0.5000 0.0000 0.0000  plane waves:     484
 k-point  7 :   0.1000 0.1000 0.0000  plane waves:     495
 k-point  8 :   0.2000 0.1000 0.0000  plane waves:     496
 k-point  9 :   0.3000 0.1000 0.0000  plane waves:     495
 k-point 10 :   0.4000 0.1000 0.0000  plane waves:     482
 k-point 11 :   0.2000 0.2000 0.0000  plane waves:     488
 k-point 12 :   0.3000 0.2000 0.0000  plane waves:     488
 k-point 13 :   0.4000 0.2000 0.0000  plane waves:     484
 k-point 14 :   0.3000 0.3000 0.0000  plane waves:     486
 k-point 15 :   0.0000 0.0000 0.1667  plane waves:     512
 k-point 16 :   0.1000 0.0000 0.1667  plane waves:     506
 k-point 17 :   0.2000 0.0000 0.1667  plane waves:     496
 k-point 18 :   0.3000-0.0000 0.1667  plane waves:     489
 k-point 19 :   0.4000 0.0000 0.1667  plane waves:     484
 k-point 20 :   0.5000 0.0000 0.1667  plane waves:     486
 k-point 21 :   0.1000 0.1000 0.1667  plane waves:     502
 k-point 22 :   0.2000 0.1000 0.1667  plane waves:     495
 k-point 23 :   0.3000 0.1000 0.1667  plane waves:     491
 k-point 24 :   0.4000 0.1000 0.1667  plane waves:     488
 k-point 25 :   0.2000 0.2000 0.1667  plane waves:     493
 k-point 26 :   0.3000 0.2000 0.1667  plane waves:     491
 k-point 27 :   0.4000 0.2000 0.1667  plane waves:     489
 k-point 28 :   0.3000 0.3000 0.1667  plane waves:     493
 k-point 29 :   0.0000 0.0000 0.3333  plane waves:     494
 k-point 30 :   0.1000 0.0000 0.3333  plane waves:     503
 k-point 31 :   0.2000 0.0000 0.3333  plane waves:     501
 k-point 32 :   0.3000-0.0000 0.3333  plane waves:     492
 k-point 33 :   0.4000 0.0000 0.3333  plane waves:     491
 k-point 34 :   0.5000 0.0000 0.3333  plane waves:     490
 k-point 35 :   0.1000 0.1000 0.3333  plane waves:     502
 k-point 36 :   0.2000 0.1000 0.3333  plane waves:     494
 k-point 37 :   0.3000 0.1000 0.3333  plane waves:     491
 k-point 38 :   0.4000 0.1000 0.3333  plane waves:     487
 k-point 39 :   0.2000 0.2000 0.3333  plane waves:     489
 k-point 40 :   0.3000 0.2000 0.3333  plane waves:     494
 k-point 41 :   0.4000 0.2000 0.3333  plane waves:     495
 k-point 42 :   0.3000 0.3000 0.3333  plane waves:     493
 k-point 43 :   0.0000 0.0000 0.5000  plane waves:     494
 k-point 44 :   0.1000 0.0000 0.5000  plane waves:     504
 k-point 45 :   0.2000 0.0000 0.5000  plane waves:     500
 k-point 46 :   0.3000-0.0000 0.5000  plane waves:     496
 k-point 47 :   0.4000 0.0000 0.5000  plane waves:     492
 k-point 48 :   0.5000 0.0000 0.5000  plane waves:     500
 k-point 49 :   0.1000 0.1000 0.5000  plane waves:     498
 k-point 50 :   0.2000 0.1000 0.5000  plane waves:     490
 k-point 51 :   0.3000 0.1000 0.5000  plane waves:     492
 k-point 52 :   0.4000 0.1000 0.5000  plane waves:     492
 k-point 53 :   0.2000 0.2000 0.5000  plane waves:     496
 k-point 54 :   0.3000 0.2000 0.5000  plane waves:     492
 k-point 55 :   0.4000 0.2000 0.5000  plane waves:     484
 k-point 56 :   0.3000 0.3000 0.5000  plane waves:     488

 maximum and minimum number of plane-waves per node :       513      482

 maximum number of plane-waves:       513
 maximum index in each direction:
   IXMAX=    4   IYMAX=    4   IZMAX=    7
   IXMIN=   -4   IYMIN=   -4   IZMIN=   -7

 serial   3D FFT for wavefunctions
 parallel 3D FFT for charge:
    minimum data exchange during FFTs selected (reduces bandwidth)

 Broyden mixing: mesh for mixing (old mesh)
   NGX =  9   NGY =  9   NGZ = 15
  (NGX  = 28   NGY  = 28   NGZ  = 48)
  gives a total of   1215 points

 initial charge density was supplied:
 charge density of overlapping atoms calculated
 number of electron       6.0000000 magnetization
 keeping initial charge density in first step

 Maximum index for non-local projection operator         1872
 Maximum index for augmentation-charges         1052 (set IRDMAX)

 First call to EWALD:  gamma=   0.511
 Maximum number of real-space cells 3x 3x 2
 Maximum number of reciprocal cells 3x 3x 4

--------------------------------------- Iteration      1(   1)  ---------------------------------------

 eigenvalue-minimisations  :   896
 total energy-change (2. order) :-0.2757253E+01  (-0.1665881E+03)
 number of electron       6.0000000 magnetization
 augmentation part        6.0000000 magnetization

 Free energy of the ion-electron system (eV)
  alpha Z        PSCENC =         5.71528798
  Ewald energy   TEWEN  =      -135.89363615
  -Hartree energ DENC   =        -0.51957906
  -exchange      EXHF   =         0.00000000
  -V(xc)+E(xc)   XCENC  =       -53.28596619
  PAW double counting   =       132.40031435      -68.49124152
  entropy T*S    EENTRO =        -0.00138160
  eigenvalues    EBANDS =        10.24370148
  atomic energy  EATOM  =       107.07524800
  Solvation  Ediel_sol  =         0.00000000
  free energy    TOTEN  =        -2.75725269 eV

  energy without entropy =       -2.75587109  energy(sigma->0) =       -2.75656189

[...]

 eigenvalue-minimisations  :  1176
 total energy-change (2. order) :-0.1610483E-06  (-0.1617966E-06)
 number of electron       5.9999999 magnetization
 augmentation part       -0.0896796 magnetization

 Broyden mixing:
  rms(total) = 0.11739E+00    rms(broyden)= 0.11739E+00
  rms(prec ) = 0.25288E+00
  weight for this iteration     100.00

[...]

 eigenvalue-minimisations  :  1192
 total energy-change (2. order) : 0.2538596E-01  (-0.5878970E-03)
 number of electron       5.9999999 magnetization
 augmentation part       -0.0908249 magnetization

[...]

 eigenvalues of (default mixing * dielectric matrix)
  average eigenvalue GAMMA=   2.6015
  2.6015

[...]

 Broyden mixing:
  rms(total) = 0.85642E-03    rms(broyden)= 0.85634E-03
  rms(prec ) = 0.15621E-02
  weight for this iteration     100.00

 eigenvalues of (default mixing * dielectric matrix)
  average eigenvalue GAMMA=   2.0661
  0.9946  2.7173  2.4864

[...]

--------------------------------------- Iteration      1(   9)  ---------------------------------------

 eigenvalue-minimisations  :  1072
 total energy-change (2. order) : 0.9172571E-06  (-0.8199571E-07)
 number of electron       5.9999999 magnetization
 augmentation part       -0.0927959 magnetization

 Free energy of the ion-electron system (eV)
  alpha Z        PSCENC =         5.71528798
  Ewald energy   TEWEN  =      -135.89363615
  -Hartree energ DENC   =        -0.26260512
  -exchange      EXHF   =         0.00000000
  -V(xc)+E(xc)   XCENC  =       -53.17392916
  PAW double counting   =       146.48625504      -82.55544325
  entropy T*S    EENTRO =        -0.00146595
  eigenvalues    EBANDS =         5.51028991
  atomic energy  EATOM  =       107.07524800
  Solvation  Ediel_sol  =         0.00000000
  free energy    TOTEN  =        -7.09999869 eV

  energy without entropy =       -7.09853274  energy(sigma->0) =       -7.09926572

 average (electrostatic) potential at core
  the test charge radii are     1.0406
  (the norm of the test charge is              1.0000)
       1 -53.4923       2 -53.4923

 E-fermi :   4.8232     XC(G=0):  -9.3711     alpha+bet :-10.7605

 k-point     1 :       0.0000    0.0000    0.0000
  band No.  band energies     occupation
      1      -4.8663      2.00000
      2       0.8621      2.00000
      3       1.1345      2.00000
      4      13.1637      0.00000
      5      13.1637      0.00000
      6      14.1667      0.00000
      7      14.1667      0.00000
      8      15.8905      0.00000

[...]

 k-point    56 :       0.3000    0.3000    0.5000
  band No.  band energies     occupation
      1       1.9460      2.00000
      2       1.9460      2.00000
      3       3.7232      2.00000
      4       3.7232      2.00000
      5       4.2313      2.00000
      6       4.2313      2.00000
      7      12.7822      0.00000
      8      12.7822      0.00000

 soft charge-density along one line, spin component           1
         0         1         2         3         4         5         6         7         8         9
 total charge-density along one line

------------------------ aborting loop because EDIFF is reached ----------------------------------------

  FORCE on cell =-STRESS in cart. coord.  units (eV):
  Direction    XX          YY          ZZ          XY          YZ          ZX
  Alpha Z     5.71529     5.71529     5.71529
  Ewald     -45.69394   -45.69394   -44.50586    -0.00000    -0.00000    -0.00000
  Hartree     0.05842     0.05842     0.14580     0.00000    -0.00000    -0.00000
  E(xc)     -16.02203   -16.02211   -16.04695    -0.00006     0.00000     0.00000
  Local      -2.64595    -2.64596    -4.15174    -0.00001    -0.00000    -0.00000
  n-local    30.86725    31.45413    31.41558    -0.60120     0.12526     0.22811
  augment    -1.22290    -1.22289    -1.24588     0.00001    -0.00000    -0.00000
  Kinetic    32.22848    18.94191    26.82208    15.78024    -3.07640    -3.20321
  Fock        0.00000     0.00000     0.00000     0.00000     0.00000     0.00000
  Total      -3.06526    -3.06526    -1.85169    -0.00000     0.00000     0.00000
  in kB    -117.53406  -117.53406   -71.00102    -0.00000     0.00000     0.00000

 VOLUME and BASIS-vectors are now :
  energy-cutoff  :      300.00
  volume of cell :       41.78
      direct lattice vectors                 reciprocal lattice vectors
     3.112000000  0.000000000  0.000000000     0.321336761  0.185523865  0.000000000
    -1.556000000  2.695071057  0.000000000     0.000000000  0.371047731  0.000000000
     0.000000000  0.000000000  4.982000000     0.000000000  0.000000000  0.200722601

  length of vectors
     3.112000000  3.112000000  4.982000000     0.371047731  0.371047731  0.200722601

 FORCES acting on ions
    electron-ion (+dipol)            ewald-force                    non-local-force                 convergence-correction
   0.973E-05 -.562E-05 0.586E-14   -.158E-12 0.910E-13 -.170E-14   0.121E-16 0.000E+00 0.000E+00   -.933E-09 0.539E-09 -.311E-14
   -.973E-05 0.562E-05 0.111E-13   0.158E-12 -.912E-13 0.170E-14   -.867E-17 0.000E+00 0.000E+00   0.933E-09 -.539E-09 0.312E-14
   -.135E-12 0.729E-13 0.169E-13   0.176E-15 -.225E-15 0.000E+00   0.347E-17 0.000E+00 0.000E+00   -.101E-15 -.336E-16 0.983E-17

 POSITION                                       TOTAL-FORCE (eV/Angst)
      0.00000      1.79671      0.00000         0.000000      0.000000      0.000000
      1.55600      0.89836      2.49100         0.000000      0.000000      0.000000
    total drift:                               -0.000000      0.000000      0.000000

  FREE ENERGIE OF THE ION-ELECTRON SYSTEM (eV)
  free  energy   TOTEN  =        -7.09999869 eV

  energy  without entropy=       -7.09853274  energy(sigma->0) =       -7.09926572