 vasp.5.4.4.18Apr17-6-g9f103f2a35 (build May 02 2017 15:33:50) complex

 executed on Intel-16.0.3.210-OMP date 2018.10.23  23:23:23

 INCAR:
 POTCAR:    PAW Al_GW 19Mar2012
 POTCAR:    PAW_PBE N 08Apr2002

 POTCAR:    PAW Al_GW 19Mar2012
   VRHFIN =Al: s2p1

   TITEL  = PAW Al_GW 19Mar2012
   POMASS =   26.982; ZVAL   =    3.000    mass and valenz
   ENMAX  =  240.300; ENMIN  =  180.225 eV

 POTCAR:    PAW_PBE N 08Apr2002
   VRHFIN =N: s2p3

   TITEL  = PAW_PBE N 08Apr2002
   POMASS =   14.001; ZVAL   =    5.000    mass and valenz
   ENMAX  =  400.000; ENMIN  =  300.000 eV

 Optimization of the real space projectors (new method)

 maximal supplied QI-value         = 18.90
 optimisation between [QCUT,QGAM] = [  8.69, 17.57] = [ 21.16, 86.49] Ry
 Optimized for a Real-space Cutoff    1.59 Angstroem

   l    n(q)    QCUT    max X(q) W(low)/X(q) W(high)/X(q)  e(spline)
   0      8     8.693    11.519    0.12E-03    0.31E-04    0.21E-06
   0      8     8.693     5.834    0.89E-04    0.32E-04    0.16E-06
   1      8     8.693    10.132    0.25E-03    0.39E-03    0.25E-06
   1      8     8.693     3.004    0.16E-03    0.27E-03    0.22E-06
   2      7     8.693     3.169    0.39E-03    0.93E-03    0.44E-06
   2      7     8.693     1.605    0.70E-04    0.91E-04    0.19E-06
 Optimization of the real space projectors (new method)

 maximal supplied QI-value         = 25.13
 optimisation between [QCUT,QGAM] = [  8.80, 17.59] = [ 21.67, 86.68] Ry
 Optimized for a Real-space Cutoff    2.14 Angstroem

   l    n(q)    QCUT    max X(q) W(low)/X(q) W(high)/X(q)  e(spline)
   0     11     8.797    79.467    0.70E-04    0.19E-04    0.19E-05
   0     11     8.797    66.151    0.68E-04    0.18E-04    0.19E-05
   1     11     8.797     6.738    0.26E-03    0.11E-02    0.73E-05
   1     11     8.797     5.013    0.25E-03    0.11E-02    0.72E-05
  PAW Al_GW 19Mar2012                   :
  PAW_PBE N 08Apr2002                   :

 POSCAR: New structure
  positions in cartesian coordinates
 exchange correlation table for  LEXCH =        8
   RHO(1)=    0.500       N(1)  =     2000
   RHO(2)=  100.500       N(2)  =     4000

 ion  position               nearest neighbor table
   1  0.333  0.667  0.000-   3 1.87   4 1.90   4 1.90   4 1.90
   2  0.667  0.333  0.500-   4 1.87   3 1.90   3 1.90   3 1.90
   3  0.333  0.667  0.625-   1 1.87   2 1.90   2 1.90   2 1.90
   4  0.667  0.333  0.125-   2 1.87   1 1.90   1 1.90   1 1.90

  LATTYP: Found a hexagonal cell.
 ALAT       =     3.1120000000
 C/A-ratio  =     1.6008997429

  Lattice vectors:

 A1 = (   3.1120000000,   0.0000000000,   0.0000000000)
 A2 = (  -1.5560000000,   2.6950710566,   0.0000000000)
 A3 = (   0.0000000000,   0.0000000000,   4.9820000000)

Analysis of symmetry for initial positions (statically):
 Subroutine PRICEL returns:
 Original cell was already a primitive cell.

 Routine SETGRP: Setting up the symmetry group for a
 hexagonal supercell.

 Subroutine GETGRP returns: Found 12 space group operations
 (whereof  6 operations were pure point group operations)
 out of a pool of 24 trial point group operations.

The static configuration has the point symmetry C_3v.
 The point group associated with its full space group is C_6v.

Analysis of symmetry for dynamics (positions and initial velocities):
 Subroutine PRICEL returns:
 Original cell was already a primitive cell.

 Routine SETGRP: Setting up the symmetry group for a
 hexagonal supercell.

 Subroutine GETGRP returns: Found 12 space group operations
 (whereof  6 operations were pure point group operations)
 out of a pool of 24 trial point group operations.

The dynamic configuration has the point symmetry C_3v.
 The point group associated with its full space group is C_6v.

 Subroutine INISYM returns: Found 12 space group operations
 (whereof  6 operations are pure point group operations),
 and found     1 'primitive' translations

 KPOINTS: Automatic generation

Automatic generation of k-mesh.
Space group operators:
 irot       det(A)        alpha          n_x          n_y          n_z        tau_x        tau_y        tau_z
    1     1.000000     0.000000     1.000000     0.000000     0.000000     0.000000     0.000000     0.000000
    2     1.000000   120.000000     0.000000     0.000000    -1.000000     0.000000     0.000000     0.000000
    3     1.000000   120.000000     0.000000     0.000000     1.000000     0.000000     0.000000     0.000000
    4    -1.000000   180.000000     1.000000    -0.000000     0.000000     0.000000     0.000000     0.000000
    5    -1.000000   180.000000     0.500000    -0.866025     0.000000     0.000000     0.000000     0.000000
    6    -1.000000   180.000000    -0.500000    -0.866025     0.000000     0.000000     0.000000     0.000000
    7     1.000000    60.000000     0.000000     0.000000    -1.000000     0.000000     0.000000     0.500000
    8     1.000000   180.000000     0.000000     0.000000     1.000000     0.000000     0.000000     0.500000
    9     1.000000    60.000000     0.000000     0.000000     1.000000    -0.000000     0.000000     0.500000
   10    -1.000000   180.000000     0.866025    -0.500000     0.000000     0.000000     0.000000     0.500000
   11    -1.000000   180.000000     0.000000     1.000000     0.000000     0.000000     0.000000     0.500000
   12    -1.000000   180.000000     0.866025     0.500000     0.000000    -0.000000     0.000000     0.500000

 Subroutine IBZKPT returns following result:

 Found     56 irreducible k-points:

 Following reciprocal coordinates:
            Coordinates               Weight
  0.000000  0.000000  0.000000      1.000000
  0.100000  0.000000  0.000000      6.000000
  0.200000 -0.000000  0.000000      6.000000
  0.300000 -0.000000  0.000000      6.000000
  0.400000 -0.000000  0.000000      6.000000
  0.500000 -0.000000  0.000000      3.000000
  0.100000  0.100000  0.000000      6.000000
  0.200000  0.100000  0.000000     12.000000
  0.300000  0.100000  0.000000     12.000000
  0.400000  0.100000  0.000000     12.000000
  0.200000  0.200000  0.000000      6.000000
  0.300000  0.200000  0.000000     12.000000
  0.400000  0.200000  0.000000      6.000000
  0.300000  0.300000  0.000000      6.000000
  0.000000  0.000000  0.166667      2.000000
  0.100000  0.000000  0.166667     12.000000
  0.200000 -0.000000  0.166667     12.000000
  0.300000 -0.000000  0.166667     12.000000
  0.400000 -0.000000  0.166667     12.000000
  0.500000 -0.000000  0.166667      6.000000
  0.100000  0.100000  0.166667     12.000000
  0.200000  0.100000  0.166667     24.000000
  0.300000  0.100000  0.166667     24.000000
  0.400000  0.100000  0.166667     24.000000
  0.200000  0.200000  0.166667     12.000000
  0.300000  0.200000  0.166667     24.000000
  0.400000  0.200000  0.166667     12.000000
  0.300000  0.300000  0.166667     12.000000
  0.000000  0.000000  0.333333      2.000000
  0.100000  0.000000  0.333333     12.000000
  0.200000 -0.000000  0.333333     12.000000
  0.300000 -0.000000  0.333333     12.000000
  0.400000 -0.000000  0.333333     12.000000
  0.500000 -0.000000  0.333333      6.000000
  0.100000  0.100000  0.333333     12.000000
  0.200000  0.100000  0.333333     24.000000
  0.300000  0.100000  0.333333     24.000000
  0.400000  0.100000  0.333333     24.000000
  0.200000  0.200000  0.333333     12.000000
  0.300000  0.200000  0.333333     24.000000
  0.400000  0.200000  0.333333     12.000000
  0.300000  0.300000  0.333333     12.000000
  0.000000  0.000000  0.500000      1.000000
  0.100000  0.000000  0.500000      6.000000
  0.200000 -0.000000  0.500000      6.000000
  0.300000 -0.000000  0.500000      6.000000
  0.400000 -0.000000  0.500000      6.000000
  0.500000 -0.000000  0.500000      3.000000
  0.100000  0.100000  0.500000      6.000000
  0.200000  0.100000  0.500000     12.000000
  0.300000  0.100000  0.500000     12.000000
  0.400000  0.100000  0.500000     12.000000
  0.200000  0.200000  0.500000      6.000000
  0.300000  0.200000  0.500000     12.000000
  0.400000  0.200000  0.500000      6.000000
  0.300000  0.300000  0.500000      6.000000

 Following cartesian coordinates:
            Coordinates               Weight
  0.000000  0.000000  0.000000      1.000000
  0.032134  0.018552  0.000000      6.000000
  0.064267  0.037105  0.000000      6.000000
  0.096401  0.055657  0.000000      6.000000
  0.128535  0.074210  0.000000      6.000000
  0.160668  0.092762  0.000000      3.000000
  0.032134  0.055657  0.000000      6.000000
  0.064267  0.074210  0.000000     12.000000
  0.096401  0.092762  0.000000     12.000000
  0.128535  0.111314  0.000000     12.000000
  0.064267  0.111314  0.000000      6.000000
  0.096401  0.129867  0.000000     12.000000
  0.128535  0.148419  0.000000      6.000000
  0.096401  0.166971  0.000000      6.000000
  0.000000  0.000000  0.033454      2.000000
  0.032134  0.018552  0.033454     12.000000
  0.064267  0.037105  0.033454     12.000000
  0.096401  0.055657  0.033454     12.000000
  0.128535  0.074210  0.033454     12.000000
  0.160668  0.092762  0.033454      6.000000
  0.032134  0.055657  0.033454     12.000000
  0.064267  0.074210  0.033454     24.000000
  0.096401  0.092762  0.033454     24.000000
  0.128535  0.111314  0.033454     24.000000
  0.064267  0.111314  0.033454     12.000000
  0.096401  0.129867  0.033454     24.000000
  0.128535  0.148419  0.033454     12.000000
  0.096401  0.166971  0.033454     12.000000
  0.000000  0.000000  0.066908      2.000000
  0.032134  0.018552  0.066908     12.000000
  0.064267  0.037105  0.066908     12.000000
  0.096401  0.055657  0.066908     12.000000
  0.128535  0.074210  0.066908     12.000000
  0.160668  0.092762  0.066908      6.000000
  0.032134  0.055657  0.066908     12.000000
  0.064267  0.074210  0.066908     24.000000
  0.096401  0.092762  0.066908     24.000000
  0.128535  0.111314  0.066908     24.000000
  0.064267  0.111314  0.066908     12.000000
  0.096401  0.129867  0.066908     24.000000
  0.128535  0.148419  0.066908     12.000000
  0.096401  0.166971  0.066908     12.000000
  0.000000  0.000000  0.100361      1.000000
  0.032134  0.018552  0.100361      6.000000
  0.064267  0.037105  0.100361      6.000000
  0.096401  0.055657  0.100361      6.000000
  0.128535  0.074210  0.100361      6.000000
  0.160668  0.092762  0.100361      3.000000
  0.032134  0.055657  0.100361      6.000000
  0.064267  0.074210  0.100361     12.000000
  0.096401  0.092762  0.100361     12.000000
  0.128535  0.111314  0.100361     12.000000
  0.064267  0.111314  0.100361      6.000000
  0.096401  0.129867  0.100361     12.000000
  0.128535  0.148419  0.100361      6.000000
  0.096401  0.166971  0.100361      6.000000

 SYSTEM =  NiAl
 POSCAR =  New structure

 Startparameter for this run:
   NWRITE =      2    write-flag & timer
   PREC   = normal    normal or accurate (medium, high low for compatibility)
   ISTART =      0    job   : 0-new  1-cont  2-samecut
   ICHARG =      2    charge: 1-file 2-atom 10-const
   ISPIN  =      1    spin polarized calculation?
   LNONCOLLINEAR =      F non collinear calculations
   LSORBIT =      F    spin-orbit coupling
   INIWAV =      1    electr: 0-lowe 1-rand  2-diag
[...]
 k-point  6 :   0.5000-0.0000 0.0000  plane waves:     484
 k-point  7 :   0.1000 0.1000 0.0000  plane waves:     495
 k-point  8 :   0.2000 0.1000 0.0000  plane waves:     496
 k-point  9 :   0.3000 0.1000 0.0000  plane waves:     495
 k-point 10 :   0.4000 0.1000 0.0000  plane waves:     482
 k-point 11 :   0.2000 0.2000 0.0000  plane waves:     488
 k-point 12 :   0.3000 0.2000 0.0000  plane waves:     488
 k-point 13 :   0.4000 0.2000 0.0000  plane waves:     484
 k-point 14 :   0.3000 0.3000 0.0000  plane waves:     486
 k-point 15 :   0.0000 0.0000 0.1667  plane waves:     512
 k-point 16 :   0.1000 0.0000 0.1667  plane waves:     506
 k-point 17 :   0.2000-0.0000 0.1667  plane waves:     496
 k-point 18 :   0.3000-0.0000 0.1667  plane waves:     489
 k-point 19 :   0.4000-0.0000 0.1667  plane waves:     484
 k-point 20 :   0.5000-0.0000 0.1667  plane waves:     486
 k-point 21 :   0.1000 0.1000 0.1667  plane waves:     502
 k-point 22 :   0.2000 0.1000 0.1667  plane waves:     495
 k-point 23 :   0.3000 0.1000 0.1667  plane waves:     491
 k-point 24 :   0.4000 0.1000 0.1667  plane waves:     488
 k-point 25 :   0.2000 0.2000 0.1667  plane waves:     493
 k-point 26 :   0.3000 0.2000 0.1667  plane waves:     491
 k-point 27 :   0.4000 0.2000 0.1667  plane waves:     489
 k-point 28 :   0.3000 0.3000 0.1667  plane waves:     493
 k-point 29 :   0.0000 0.0000 0.3333  plane waves:     494
 k-point 30 :   0.1000 0.0000 0.3333  plane waves:     503
 k-point 31 :   0.2000-0.0000 0.3333  plane waves:     501
 k-point 32 :   0.3000-0.0000 0.3333  plane waves:     492
 k-point 33 :   0.4000-0.0000 0.3333  plane waves:     491
 k-point 34 :   0.5000-0.0000 0.3333  plane waves:     490
 k-point 35 :   0.1000 0.1000 0.3333  plane waves:     502
 k-point 36 :   0.2000 0.1000 0.3333  plane waves:     494
 k-point 37 :   0.3000 0.1000 0.3333  plane waves:     491
 k-point 38 :   0.4000 0.1000 0.3333  plane waves:     487
 k-point 39 :   0.2000 0.2000 0.3333  plane waves:     489
 k-point 40 :   0.3000 0.2000 0.3333  plane waves:     494
 k-point 41 :   0.4000 0.2000 0.3333  plane waves:     495
 k-point 42 :   0.3000 0.3000 0.3333  plane waves:     493
 k-point 43 :   0.0000 0.0000 0.5000  plane waves:     494
 k-point 44 :   0.1000 0.0000 0.5000  plane waves:     504
 k-point 45 :   0.2000-0.0000 0.5000  plane waves:     500
 k-point 46 :   0.3000-0.0000 0.5000  plane waves:     496
 k-point 47 :   0.4000-0.0000 0.5000  plane waves:     492
 k-point 48 :   0.5000-0.0000 0.5000  plane waves:     500
 k-point 49 :   0.1000 0.1000 0.5000  plane waves:     498
 k-point 50 :   0.2000 0.1000 0.5000  plane waves:     490
 k-point 51 :   0.3000 0.1000 0.5000  plane waves:     492
 k-point 52 :   0.4000 0.1000 0.5000  plane waves:     492
 k-point 53 :   0.2000 0.2000 0.5000  plane waves:     496
 k-point 54 :   0.3000 0.2000 0.5000  plane waves:     492
 k-point 55 :   0.4000 0.2000 0.5000  plane waves:     484
 k-point 56 :   0.3000 0.3000 0.5000  plane waves:     488

 maximum and minimum number of plane-waves per node :       513      482

 maximum number of plane-waves:       513
 maximum index in each direction:
   IXMAX=    4   IYMAX=    4   IZMAX=    7
   IXMIN=   -4   IYMIN=   -4   IZMIN=   -7

 serial   3D FFT for wavefunctions
 parallel 3D FFT for charge:
    minimum data exchange during FFTs selected (reduces bandwidth)

 Broyden mixing: mesh for mixing (old mesh)
   NGX =  9   NGY =  9   NGZ = 15
  (NGX  = 28   NGY  = 28   NGZ  = 48)
  gives a total of   1215 points

 initial charge density was supplied:
 charge density of overlapping atoms calculated
 number of electron      16.0000000 magnetization
 keeping initial charge density in first step

 Maximum index for non-local projection operator         4515
 Maximum index for augmentation-charges          768 (set IRDMAX)

 First call to EWALD:  gamma=   0.511
 Maximum number of real-space cells 3x 3x 2
 Maximum number of reciprocal cells 3x 3x 4

----------------------------------------- Iteration    1(   1)  ---------------------------------------

 eigenvalue-minimisations  :  1392
 total energy-change (2. order) : 0.2315879E+02  (-0.6336164E+03)
 number of electron      16.0000000 magnetization
 augmentation part       16.0000000 magnetization

 Free energy of the ion-electron system (eV)
  alpha Z        PSCENC =        31.74394346
  Ewald energy   TEWEN  =      -591.70923336
  -Hartree energ DENC   =      -118.96136177
  -exchange      EXHF   =         0.00000000
  -V(xc)+E(xc)   XCENC  =       -12.08606105
  PAW double counting   =       542.26577758     -480.73867292
  entropy T*S    EENTRO =        -0.00168495
  eigenvalues    EBANDS =        17.85010476
  atomic energy  EATOM  =       634.79597521
  Solvation  Ediel_sol  =         0.00000000
  free energy    TOTEN  =        23.15878696 eV

  energy without entropy =       23.16047191  energy(sigma->0) =       23.15962943

[...]

 eigenvalue-minimisations  :  1932
 total energy-change (2. order) :-0.5617266E+02  (-0.5302810E+02)
 number of electron      16.0000000 magnetization
 augmentation part       16.0000000 magnetization

[...]

 Broyden mixing:
  rms(total) = 0.11161E+01    rms(broyden)= 0.11160E+01
  rms(prec ) = 0.24428E+01
  weight for this iteration     100.00

[...]

 eigenvalues of (default mixing * dielectric matrix)
  average eigenvalue GAMMA=   0.9398
  0.9398

[...]

 average (electrostatic) potential at core
  the test charge radii are     1.0406  0.7089
  (the norm of the test charge is              1.0000)
       1 -49.9812       2 -49.9812       3 -61.2841       4 -61.2841

 E-fermi :   5.2518     XC(G=0): -10.9135     alpha+bet :-14.9192

 k-point     1 :       0.0000    0.0000    0.0000
  band No.  band energies     occupation
      1     -10.1255      2.00000
      2      -8.0029      2.00000
      3      -0.8667      2.00000
      4       4.3465      2.00000
      5       4.3472      2.00000
      6       4.9717      2.00000
      7       4.9724      2.00000
      8       5.0563      2.00000
      9       9.2729      0.00000
     10      11.7601      0.00000
     11      15.8280      0.00000
     12      16.3230      0.00000

[...]

 soft charge-density along one line, spin component           1
         0         1         2         3         4         5         6         7         8         9
 total charge-density along one line

------------------------ aborting loop because EDIFF is reached ----------------------------------------

  FORCE on cell =-STRESS in cart. coord.  units (eV):
  Direction    XX          YY          ZZ          XY          YZ          ZX
  Alpha Z    31.74394    31.74394    31.74394
  Ewald    -203.19964  -203.19964  -185.31051    -0.00000     0.00000     0.00000
  Hartree    49.50390    49.50389    55.26904    -0.00000    -0.00000    -0.00000
  E(xc)     -62.69297   -62.69299   -62.68306    -0.00001     0.00005     0.00003
  Local     -59.20367   -59.20179   -82.19039     0.00163     0.00044     0.00025
  n-local     6.06434     5.84167     6.33335     0.64621    -0.04196     0.03083
  augment     1.33737     1.33744     1.31916     0.00007     0.00003     0.00001
  Kinetic   228.54310   234.86283   232.01407    -7.46461    -0.33901    -0.81769
  Fock        0.00000     0.00000     0.00000     0.00000     0.00000     0.00000
  Total      -4.85413    -4.85413    -3.50438    -0.00000    -0.00000     0.00000
  in kB    -186.12674  -186.12674  -134.37201    -0.00000    -0.00000     0.00000

 VOLUME and BASIS-vectors are now :
  energy-cutoff  :      300.00
  volume of cell :       41.78
      direct lattice vectors                 reciprocal lattice vectors
     3.112000000  0.000000000  0.000000000     0.321336761  0.185523865  0.000000000
    -1.556000000  2.695071057  0.000000000     0.000000000  0.371047731  0.000000000
     0.000000000  0.000000000  4.982000000     0.000000000  0.000000000  0.200722601

[...]

 FORCES acting on ions
    electron-ion (+dipol)            ewald-force                    non-local-force                 convergence-correction
   -.180E-04 -.178E-04 -.220E+01   -.522E-11 0.299E-11 0.159E+01   0.939E-17 0.916E-17 0.109E+01   0.134E-06 -.779E-07 0.174E-03
   -.643E-05 -.245E-04 -.220E+01   0.523E-11 -.300E-11 0.159E+01   -.206E-17 0.122E-16 0.109E+01   -.135E-06 0.775E-07 0.174E-03
   0.408E-04 0.345E-05 0.125E+01   -.550E-11 0.316E-11 -.159E+01   -.342E-17 0.346E-17 -.136E+00   -.130E-06 0.777E-07 -.807E-02
   -.174E-04 0.370E-04 0.125E+01   0.550E-11 -.315E-11 -.159E+01   0.529E-17 -.767E-18 -.136E+00   0.132E-06 -.739E-07 -.807E-02
   -.102E-05 -.177E-05 -.190E+01   0.227E-16 0.212E-15 -.200E-14   0.920E-17 0.241E-16 0.191E+01   0.191E-08 0.330E-08 -.158E-01

 POSITION                                       TOTAL-FORCE (eV/Angst)
      0.00000      1.79671      0.00000        -0.000000      0.000000      0.480675
      1.55600      0.89836      2.49100         0.000000      0.000000      0.480675
      0.00000      1.79671      3.11375         0.000000     -0.000000     -0.480675
      1.55600      0.89836      0.62275        -0.000000     -0.000000     -0.480675
    total drift:                               -0.000001     -0.000002      0.001670

  FREE ENERGIE OF THE ION-ELECTRON SYSTEM (eV)
  free  energy   TOTEN  =       -29.79476995 eV

  energy  without entropy=      -29.79476995  energy(sigma->0) =      -29.79476995

[...]

 d Force = 0.0000000E+00[ 0.000E+00, 0.000E+00]  d Energy = 0.1425388E+00-0.143E+00
 d Force = 0.0000000E+00[ 0.000E+00, 0.000E+00]  d Ewald  = 0.1292181E+02-0.129E+02

 Steepest descent step on ions:
 trial-energy change:   -0.142539  1 .order   -0.138872   -0.286590    0.008847
  (g-gl).g = 0.287E+00      g.g   = 0.287E+00  gl.gl    = 0.000E+00
 g(Force)  = 0.000E+00   g(Stress)= 0.287E+00 ortho     = 0.000E+00
 gamma     =   0.00000
 trial     =   1.00000
 opt step  =   0.97208  (harmonic =   0.97006) maximal distance =0.00000000
 next E    =   -29.937432   (d E  =  -0.14266)

[...]

 Broyden mixing:
  rms(total) = 0.75526E-03    rms(broyden)= 0.67707E-03
  rms(prec ) = 0.10355E-02
  weight for this iteration     100.00
  WARNING: grid for Broyden might be to small

[...]

 d Force = 0.0000000E+00[ 0.000E+00, 0.000E+00]  d Energy = 0.1127150E-03-0.113E-03
 d Force = 0.0000000E+00[ 0.000E+00, 0.000E+00]  d Ewald  =-0.3683566E+00 0.368E+00

[...]

 Conjugate gradient step on ions:
 trial-energy change:   -0.000648  1 .order   -0.000649   -0.001007   -0.000292
  (g-gl).g = 0.777E-03      g.g   = 0.101E-02  gl.gl    = 0.287E+00
 g(Force)  = 0.000E+00   g(Stress)= 0.101E-02 ortho     = 0.234E-03
 gamma     =   0.00271
 trial     =   0.99442
 opt step  =   1.40083  (harmonic =   1.40083) maximal distance =0.00000000
 next E    =   -29.938130   (d E  =  -0.00071)

[...]

 Broyden mixing:
  rms(total) = 0.21985E-02    rms(broyden)= 0.21731E-02
  rms(prec ) = 0.40696E-02
  weight for this iteration     100.00

[...]

 eigenvalue-minimisations  :   720
 total energy-change (2. order) :-0.4715162E-07  (-0.1396747E-06)
 number of electron      15.9999984 magnetization
 augmentation part        0.4253917 magnetization

[...]

 Broyden mixing:
  rms(total) = 0.33258E-03    rms(broyden)= 0.32767E-04
  rms(prec ) = 0.55665E-04
  weight for this iteration     100.00
  WARNING: grid for Broyden might be to small

 eigenvalues of (default mixing * dielectric matrix)
  average eigenvalue GAMMA=   1.5739
  2.2336  1.0279  1.5171  1.5171

[...]

----------------------------------------- Iteration    5(   6)  ---------------------------------------

 eigenvalue-minimisations  :   708
 total energy-change (2. order) : 0.8559482E-08  (-0.2912130E-08)
 number of electron      15.9999984 magnetization
 augmentation part        0.4254001 magnetization

 Free energy of the ion-electron system (eV)
  alpha Z        PSCENC =        33.78036736
  Ewald energy   TEWEN  =      -604.20858353
  -Hartree energ DENC   =      -151.33752764
  -exchange      EXHF   =         0.00000000
  -V(xc)+E(xc)   XCENC  =        -8.54550467
  PAW double counting   =      1211.50407258    -1150.76929241
  entropy T*S    EENTRO =        -0.00000000
  eigenvalues    EBANDS =         4.84237045
  atomic energy  EATOM  =       634.79597521
  Solvation  Ediel_sol  =         0.00000000
  free energy    TOTEN  =       -29.93812265 eV

  energy without entropy =      -29.93812265  energy(sigma->0) =      -29.93812265

 average (electrostatic) potential at core
  the test charge radii are     1.0406  0.7089
  (the norm of the test charge is              1.0000)
       1 -49.1905       2 -49.1905       3 -60.5440       4 -60.5440

 E-fermi :   5.8566     XC(G=0): -11.1873     alpha+bet :-15.8763

[...]

 k-point    56 :       0.3000    0.3000    0.5000
  band No.  band energies     occupation
      1      -7.2152      2.00000
      2      -7.2152      2.00000
      3       0.6205      2.00000
      4       0.6205      2.00000
      5       1.8716      2.00000
      6       1.8716      2.00000
      7       4.8055      2.00000
      8       4.8055      2.00000
      9      12.9884      0.00000
     10      12.9884      0.00000
     11      14.2969      0.00000
     12      14.2969      0.00000

 soft charge-density along one line, spin component           1
         0         1         2         3         4         5         6         7         8         9
 total charge-density along one line

------------------------ aborting loop because EDIFF is reached ----------------------------------------

  FORCE on cell =-STRESS in cart. coord.  units (eV):
  Direction    XX          YY          ZZ          XY          YZ          ZX
  Alpha Z    33.78037    33.78037    33.78037
  Ewald    -205.83158  -205.83158  -192.54583    -0.00000    -0.00000    -0.00000
  Hartree    49.10611    49.10611    53.12532    -0.00000    -0.00000    -0.00000
  E(xc)     -63.57736   -63.57739   -63.53590    -0.00002     0.00004     0.00003
  Local     -57.83222   -57.83123   -74.66687     0.00085     0.00019     0.00011
  n-local     6.99695     6.81909     7.00444     0.51095    -0.06113     0.01476
  augment     1.38240     1.38249     1.35982     0.00008     0.00002     0.00001
  Kinetic   232.87803   239.24876   235.47670    -7.15956    -0.26926    -0.78355
  Fock        0.00000     0.00000     0.00000     0.00000     0.00000     0.00000
  Total      -0.00034    -0.00034    -0.00195     0.00000     0.00000     0.00000
  in kB      -0.01386    -0.01386    -0.07972     0.00000     0.00000     0.00000

 VOLUME and BASIS-vectors are now :
  energy-cutoff  :      300.00
  volume of cell :       39.27
      direct lattice vectors                 reciprocal lattice vectors
     3.037781739 -0.000000000 -0.000000000     0.329187574  0.190056534 -0.000000000
    -1.518890869  2.630796157  0.000000000     0.000000000  0.380113069 -0.000000000
    -0.000000000  0.000000000  4.913220717     0.000000000 -0.000000000  0.203532481

  length of vectors
     3.037781739  3.037781739  4.913220717     0.380113069  0.380113069  0.203532481

 FORCES acting on ions
    electron-ion (+dipol)            ewald-force                    non-local-force                 convergence-correction
   -.179E-04 -.459E-04 -.599E+00   -.544E-11 0.313E-11 0.321E+00   -.773E-16 0.163E-17 0.686E+00   0.342E-08 -.199E-08 0.190E-05
   -.308E-04 -.385E-04 -.599E+00   0.544E-11 -.312E-11 0.321E+00   0.539E-16 -.689E-16 0.686E+00   -.343E-08 0.197E-08 0.190E-05
   0.468E-04 -.235E-06 0.294E+00   -.572E-11 0.328E-11 -.321E+00   0.574E-17 -.307E-17 -.379E+00   0.488E-09 -.351E-09 -.101E-03
   -.236E-04 0.404E-04 0.294E+00   0.572E-11 -.329E-11 -.321E+00   0.331E-17 0.330E-17 -.379E+00   -.548E-09 0.247E-09 -.101E-03
   -.255E-04 -.442E-04 -.612E+00   -.221E-14 -.181E-14 -.211E-14   -.144E-16 -.670E-16 0.613E+00   -.683E-10 -.118E-09 -.199E-03

 POSITION                                       TOTAL-FORCE (eV/Angst)
      0.00000      1.75386      0.00000        -0.000000      0.000000      0.406583
      1.51889      0.87693      2.45661        -0.000000      0.000000      0.406583
      0.00000      1.75386      3.07076         0.000000     -0.000000     -0.406583
      1.51889      0.87693      0.61415         0.000000     -0.000000     -0.406583
    total drift:                               -0.000026     -0.000044      0.001171

  FREE ENERGIE OF THE ION-ELECTRON SYSTEM (eV)
  free  energy   TOTEN  =       -29.93812265 eV

  energy  without entropy=      -29.93812265  energy(sigma->0) =      -29.93812265

 d Force = 0.0000000E+00[ 0.000E+00, 0.000E+00]  d Energy = 0.5312834E-04-0.531E-04
 d Force = 0.0000000E+00[ 0.000E+00, 0.000E+00]  d Ewald  =-0.1598501E-01 0.160E-01

 reached required accuracy - stopping structural energy minimisation