 vasp.5.4.4.18Apr17-6-g9f103f2a35 (build May 02 2017 15:33:50) complex

 executed on Intel-16.0.3.210-OMP date 2018.07.06  11:34:46

 INCAR:
 POTCAR:    PAW Ni_GW 31Mar2010

 POTCAR:    PAW Ni_GW 31Mar2010
   VRHFIN =Ni:

   TITEL  = PAW Ni_GW 31Mar2010
   POMASS =   58.690; ZVAL   =   10.000    mass and valenz
   ENMAX  =  357.323; ENMIN  =  267.992 eV

 Optimization of the real space projectors (new method)

 maximal supplied QI-value         = 16.25
 optimisation between [QCUT,QGAM] = [  8.78, 17.71] = [ 21.57, 87.87] Ry
 Optimized for a Real-space Cutoff    1.55 Angstroem

   l    n(q)    QCUT    max X(q) W(low)/X(q) W(high)/X(q)  e(spline)
   2      7     8.776    90.918    0.49E-03    0.31E-03    0.19E-06
   2      7     8.776    88.873    0.50E-03    0.32E-03    0.19E-06
   0      8     8.776    17.118    0.77E-04    0.31E-04    0.38E-07
   0      8     8.776     8.062    0.82E-04    0.33E-04    0.42E-07
   1      8     8.776     4.910    0.92E-04    0.24E-03    0.96E-07
   1      8     8.776     3.344    0.63E-04    0.17E-03    0.76E-07
   3      7     8.776     5.513    0.45E-03    0.35E-03    0.68E-07
  PAW Ni_GW 31Mar2010                   :

 POSCAR: New structure
  positions in cartesian coordinates
 exchange correlation table for  LEXCH =        8
   RHO(1)=    0.500       N(1)  =     2000
   RHO(2)=  100.500       N(2)  =     4000

 ion  position               nearest neighbor table
   1  0.000  0.000  0.000-   2 2.52   3 2.52   4 2.52  14 2.52  15 2.52  50 2.52  52 2.52  62 2.52
                           195 2.52 196 2.52 207 2.52 244 2.52
   2  0.000  0.125  0.125-   1 2.52   3 2.52   4 2.52   5 2.52   8 2.52  17 2.52  19 2.52  21 2.52
                           195 2.52 196 2.52 200 2.52 211 2.52
   3  0.125  0.000  0.125-   1 2.52   2 2.52   4 2.52   5 2.52   8 2.52  50 2.52  52 2.52  56 2.52
                            65 2.52  66 2.52  69 2.52 114 2.52
   4  0.125  0.125  0.000-   1 2.52   2 2.52   3 2.52  14 2.52  15 2.52  17 2.52  19 2.52  31 2.52
                            65 2.52  66 2.52  78 2.52  81 2.52
   5  0.000  0.000  0.250-   2 2.52   3 2.52   6 2.52   7 2.52   8 2.52  50 2.52  54 2.52  56 2.52
                           195 2.52 199 2.52 200 2.52 248 2.52
   6  0.000  0.125  0.375-   5 2.52   7 2.52   8 2.52   9 2.52  12 2.52  21 2.52  23 2.52  25 2.52
                           199 2.52 200 2.52 204 2.52 215 2.52
   7  0.125  0.000  0.375-   5 2.52   6 2.52   8 2.52   9 2.52  12 2.52  54 2.52  56 2.52  60 2.52
                            69 2.52  70 2.52  73 2.52 118 2.52
   8  0.125  0.125  0.250-   2 2.52   3 2.52   5 2.52   6 2.52   7 2.52  19 2.52  21 2.52  23 2.52
                            66 2.52  69 2.52  70 2.52  85 2.52
   9  0.000  0.000  0.500-   6 2.52   7 2.52  10 2.52  11 2.52  12 2.52  54 2.52  58 2.52  60 2.52
                           199 2.52 203 2.52 204 2.52 252 2.52
  10  0.000  0.125  0.625-   9 2.52  11 2.52  12 2.52  13 2.52  16 2.52  25 2.52  27 2.52  29 2.52
                           203 2.52 204 2.52 208 2.52 219 2.52
  11  0.125  0.000  0.625-   9 2.52  10 2.52  12 2.52  13 2.52  16 2.52  58 2.52  60 2.52  64 2.52
                            73 2.52  74 2.52  77 2.52 122 2.52
  12  0.125  0.125  0.500-   6 2.52   7 2.52   9 2.52  10 2.52  11 2.52  23 2.52  25 2.52  27 2.52
                            70 2.52  73 2.52  74 2.52  89 2.52
  13  0.000  0.000  0.750-  10 2.52  11 2.52  14 2.52  15 2.52  16 2.52  58 2.52  62 2.52  64 2.52
                           203 2.52 207 2.52 208 2.52 256 2.52
  14  0.000  0.125  0.875-   1 2.52   4 2.52  13 2.52  15 2.52  16 2.52  17 2.52  29 2.52  31 2.52
                           196 2.52 207 2.52 208 2.52 223 2.52
  15  0.125  0.000  0.875-   1 2.52   4 2.52  13 2.52  14 2.52  16 2.52  52 2.52  62 2.52  64 2.52
                            65 2.52  77 2.52  78 2.52 126 2.52
  16  0.125  0.125  0.750-  10 2.52  11 2.52  13 2.52  14 2.52  15 2.52  27 2.52  29 2.52  31 2.52
                            74 2.52  77 2.52  78 2.52  93 2.52
  17  0.000  0.250  0.000-   2 2.52   4 2.52  14 2.52  18 2.52  19 2.52  20 2.52  30 2.52  31 2.52
                           196 2.52 211 2.52 212 2.52 223 2.52
  18  0.000  0.375  0.125-  17 2.52  19 2.52  20 2.52  21 2.52  24 2.52  33 2.52  35 2.52  37 2.52
                           211 2.52 212 2.52 216 2.52 227 2.52
  19  0.125  0.250  0.125-   2 2.52   4 2.52   8 2.52  17 2.52  18 2.52  20 2.52  21 2.52  24 2.52
                            66 2.52  81 2.52  82 2.52  85 2.52
  20  0.125  0.375  0.000-  17 2.52  18 2.52  19 2.52  30 2.52  31 2.52  33 2.52  35 2.52  47 2.52
                            81 2.52  82 2.52  94 2.52  97 2.52
  21  0.000  0.250  0.250-   2 2.52   6 2.52   8 2.52  18 2.52  19 2.52  22 2.52  23 2.52  24 2.52
                           200 2.52 211 2.52 215 2.52 216 2.52
  22  0.000  0.375  0.375-  21 2.52  23 2.52  24 2.52  25 2.52  28 2.52  37 2.52  39 2.52  41 2.52
                           215 2.52 216 2.52 220 2.52 231 2.52
  23  0.125  0.250  0.375-   6 2.52   8 2.52  12 2.52  21 2.52  22 2.52  24 2.52  25 2.52  28 2.52
                            70 2.52  85 2.52  86 2.52  89 2.52
  24  0.125  0.375  0.250-  18 2.52  19 2.52  21 2.52  22 2.52  23 2.52  35 2.52  37 2.52  39 2.52
                            82 2.52  85 2.52  86 2.52 101 2.52
  25  0.000  0.250  0.500-   6 2.52  10 2.52  12 2.52  22 2.52  23 2.52  26 2.52  27 2.52  28 2.52
                           204 2.52 215 2.52 219 2.52 220 2.52
  26  0.000  0.375  0.625-  25 2.52  27 2.52  28 2.52  29 2.52  32 2.52  41 2.52  43 2.52  45 2.52
                           219 2.52 220 2.52 224 2.52 235 2.52
  27  0.125  0.250  0.625-  10 2.52  12 2.52  16 2.52  25 2.52  26 2.52  28 2.52  29 2.52  32 2.52
                            74 2.52  89 2.52  90 2.52  93 2.52
  28  0.125  0.375  0.500-  22 2.52  23 2.52  25 2.52  26 2.52  27 2.52  39 2.52  41 2.52  43 2.52
                            86 2.52  89 2.52  90 2.52 105 2.52
  29  0.000  0.250  0.750-  10 2.52  14 2.52  16 2.52  26 2.52  27 2.52  30 2.52  31 2.52  32 2.52
                           208 2.52 219 2.52 223 2.52 224 2.52
  30  0.000  0.375  0.875-  17 2.52  20 2.52  29 2.52  31 2.52  32 2.52  33 2.52  45 2.52  47 2.52
                           212 2.52 223 2.52 224 2.52 239 2.52
  31  0.125  0.250  0.875-   4 2.52  14 2.52  16 2.52  17 2.52  20 2.52  29 2.52  30 2.52  32 2.52
                            78 2.52  81 2.52  93 2.52  94 2.52
  32  0.125  0.375  0.750-  26 2.52  27 2.52  29 2.52  30 2.52  31 2.52  43 2.52  45 2.52  47 2.52
                            90 2.52  93 2.52  94 2.52 109 2.52
  33  0.000  0.500  0.000-  18 2.52  20 2.52  30 2.52  34 2.52  35 2.52  36 2.52  46 2.52  47 2.52
                           212 2.52 227 2.52 228 2.52 239 2.52
  34  0.000  0.625  0.125-  33 2.52  35 2.52  36 2.52  37 2.52  40 2.52  49 2.52  51 2.52  53 2.52
                           227 2.52 228 2.52 232 2.52 243 2.52
  35  0.125  0.500  0.125-  18 2.52  20 2.52  24 2.52  33 2.52  34 2.52  36 2.52  37 2.52  40 2.52
                            82 2.52  97 2.52  98 2.52 101 2.52
  36  0.125  0.625  0.000-  33 2.52  34 2.52  35 2.52  46 2.52  47 2.52  49 2.52  51 2.52  63 2.52
                            97 2.52  98 2.52 110 2.52 113 2.52
  37  0.000  0.500  0.250-  18 2.52  22 2.52  24 2.52  34 2.52  35 2.52  38 2.52  39 2.52  40 2.52
                           216 2.52 227 2.52 231 2.52 232 2.52
  38  0.000  0.625  0.375-  37 2.52  39 2.52  40 2.52  41 2.52  44 2.52  53 2.52  55 2.52  57 2.52
                           231 2.52 232 2.52 236 2.52 247 2.52
  39  0.125  0.500  0.375-  22 2.52  24 2.52  28 2.52  37 2.52  38 2.52  40 2.52  41 2.52  44 2.52
                            86 2.52 101 2.52 102 2.52 105 2.52
  40  0.125  0.625  0.250-  34 2.52  35 2.52  37 2.52  38 2.52  39 2.52  51 2.52  53 2.52  55 2.52
                            98 2.52 101 2.52 102 2.52 117 2.52
  41  0.000  0.500  0.500-  22 2.52  26 2.52  28 2.52  38 2.52  39 2.52  42 2.52  43 2.52  44 2.52
                           220 2.52 231 2.52 235 2.52 236 2.52
  42  0.000  0.625  0.625-  41 2.52  43 2.52  44 2.52  45 2.52  48 2.52  57 2.52  59 2.52  61 2.52
                           235 2.52 236 2.52 240 2.52 251 2.52
  43  0.125  0.500  0.625-  26 2.52  28 2.52  32 2.52  41 2.52  42 2.52  44 2.52  45 2.52  48 2.52
                            90 2.52 105 2.52 106 2.52 109 2.52
  44  0.125  0.625  0.500-  38 2.52  39 2.52  41 2.52  42 2.52  43 2.52  55 2.52  57 2.52  59 2.52
                           102 2.52 105 2.52 106 2.52 121 2.52
  45  0.000  0.500  0.750-  26 2.52  30 2.52  32 2.52  42 2.52  43 2.52  46 2.52  47 2.52  48 2.52
                           224 2.52 235 2.52 239 2.52 240 2.52
  46  0.000  0.625  0.875-  33 2.52  36 2.52  45 2.52  47 2.52  48 2.52  49 2.52  61 2.52  63 2.52
                           228 2.52 239 2.52 240 2.52 255 2.52
  47  0.125  0.500  0.875-  20 2.52  30 2.52  32 2.52  33 2.52  36 2.52  45 2.52  46 2.52  48 2.52
                            94 2.52  97 2.52 109 2.52 110 2.52
  48  0.125  0.625  0.750-  42 2.52  43 2.52  45 2.52  46 2.52  47 2.52  59 2.52  61 2.52  63 2.52
                           106 2.52 109 2.52 110 2.52 125 2.52
  49  0.000  0.750  0.000-  34 2.52  36 2.52  46 2.52  50 2.52  51 2.52  52 2.52  62 2.52  63 2.52
                           228 2.52 243 2.52 244 2.52 255 2.52
  50  0.000  0.875  0.125-   1 2.52   3 2.52   5 2.52  49 2.52  51 2.52  52 2.52  53 2.52  56 2.52
                           195 2.52 243 2.52 244 2.52 248 2.52
  51  0.125  0.750  0.125-  34 2.52  36 2.52  40 2.52  49 2.52  50 2.52  52 2.52  53 2.52  56 2.52
                            98 2.52 113 2.52 114 2.52 117 2.52
  52  0.125  0.875  0.000-   1 2.52   3 2.52  15 2.52  49 2.52  50 2.52  51 2.52  62 2.52  63 2.52
                            65 2.52 113 2.52 114 2.52 126 2.52
  53  0.000  0.750  0.250-  34 2.52  38 2.52  40 2.52  50 2.52  51 2.52  54 2.52  55 2.52  56 2.52
                           232 2.52 243 2.52 247 2.52 248 2.52
  54  0.000  0.875  0.375-   5 2.52   7 2.52   9 2.52  53 2.52  55 2.52  56 2.52  57 2.52  60 2.52
                           199 2.52 247 2.52 248 2.52 252 2.52
  55  0.125  0.750  0.375-  38 2.52  40 2.52  44 2.52  53 2.52  54 2.52  56 2.52  57 2.52  60 2.52
                           102 2.52 117 2.52 118 2.52 121 2.52
  56  0.125  0.875  0.250-   3 2.52   5 2.52   7 2.52  50 2.52  51 2.52  53 2.52  54 2.52  55 2.52
                            69 2.52 114 2.52 117 2.52 118 2.52
  57  0.000  0.750  0.500-  38 2.52  42 2.52  44 2.52  54 2.52  55 2.52  58 2.52  59 2.52  60 2.52
                           236 2.52 247 2.52 251 2.52 252 2.52
  58  0.000  0.875  0.625-   9 2.52  11 2.52  13 2.52  57 2.52  59 2.52  60 2.52  61 2.52  64 2.52
                           203 2.52 251 2.52 252 2.52 256 2.52
  59  0.125  0.750  0.625-  42 2.52  44 2.52  48 2.52  57 2.52  58 2.52  60 2.52  61 2.52  64 2.52
                           106 2.52 121 2.52 122 2.52 125 2.52
  60  0.125  0.875  0.500-   7 2.52   9 2.52  11 2.52  54 2.52  55 2.52  57 2.52  58 2.52  59 2.52
                            73 2.52 118 2.52 121 2.52 122 2.52
[...]
     0.000000000  0.000000000 14.280000000     0.000000000  0.000000000  0.070028011

  length of vectors
    14.280000000 14.280000000 14.280000000     0.070028011  0.070028011  0.070028011

 FORCES acting on ions
    electron-ion (+dipol)            ewald-force                    non-local-force                 convergence-correction
   0.147E-13 -.698E-13 0.118E-12   0.238E-12 -.110E-12 -.171E-12   0.631E-23 -.202E-23 0.377E-23   -.143E-11 0.185E-11 -.648E-12
   -.269E-13 0.134E-12 0.173E-12   0.401E-12 -.183E-12 -.174E-12   0.878E-24 -.152E-23 -.187E-23   -.199E-11 -.325E-12 -.356E-11
   0.236E-12 -.257E-13 0.267E-11   0.325E-12 -.338E-12 -.133E-12   0.262E-23 0.124E-23 -.401E-23   -.228E-11 0.965E-13 -.278E-11
   0.273E-12 0.192E-14 0.278E-11   0.568E-13 -.263E-12 -.220E-12   0.454E-23 -.395E-23 0.246E-23   -.190E-11 -.429E-13 -.214E-11
   -.230E-13 -.266E-13 0.147E-12   0.246E-12 -.384E-12 -.177E-12   0.366E-24 -.514E-23 -.288E-23   -.820E-12 -.746E-13 -.341E-11
   -.447E-13 0.210E-12 0.216E-12   -.330E-12 -.526E-12 -.249E-13   0.461E-23 -.388E-23 0.185E-23   0.740E-13 -.106E-12 -.174E-11
   0.329E-12 -.552E-13 0.211E-11   -.233E-12 -.574E-12 -.888E-14   -.302E-23 0.284E-23 0.104E-22   -.176E-12 -.995E-12 -.313E-12
   0.270E-12 0.122E-12 0.279E-11   0.186E-12 0.835E-13 -.144E-12   0.327E-23 -.194E-23 -.690E-23   -.209E-11 -.302E-12 -.255E-11
   0.576E-13 -.144E-12 0.334E-12   0.113E-11 0.103E-12 -.171E-12   0.304E-23 -.763E-23 0.570E-23   0.131E-11 -.187E-12 0.622E-12
   0.460E-13 0.163E-12 0.543E-12   0.817E-12 -.909E-12 -.533E-13   -.105E-23 0.219E-23 0.173E-23   0.930E-12 0.425E-12 0.323E-11
   0.386E-12 -.202E-12 0.286E-11   -.391E-12 -.213E-12 -.355E-14   -.165E-24 -.617E-23 0.390E-23   0.175E-11 0.495E-12 0.233E-11
   0.379E-12 0.287E-12 0.232E-11   0.924E-13 -.295E-12 0.391E-13   0.287E-23 -.728E-23 0.717E-23   0.983E-12 -.112E-12 0.198E-11
   0.143E-12 -.104E-12 0.698E-12   0.369E-12 0.853E-13 -.103E-12   -.207E-23 -.135E-22 0.296E-23   0.528E-12 0.163E-11 0.334E-11
   0.710E-13 0.116E-12 0.107E-11   -.107E-13 -.398E-12 0.604E-13   0.276E-23 -.118E-23 -.672E-24   -.974E-12 0.224E-12 0.191E-11
   0.315E-12 -.989E-13 0.316E-11   -.171E-12 0.131E-12 -.128E-12   0.603E-23 0.200E-23 0.188E-23   -.526E-13 0.151E-11 0.670E-12
   0.336E-12 -.322E-13 0.290E-11   0.213E-13 -.341E-12 0.623E-14   0.307E-23 -.103E-22 0.607E-23   0.968E-12 0.243E-12 0.255E-11
   -.276E-13 0.269E-12 0.145E-12   0.416E-12 0.178E-14 -.586E-13   -.185E-23 -.258E-23 -.374E-23   -.143E-11 -.202E-11 -.119E-11
   0.412E-13 0.468E-12 0.335E-12   0.183E-12 -.144E-12 -.256E-12   -.203E-23 0.253E-23 -.344E-23   -.684E-12 -.162E-11 -.203E-11
   0.227E-12 0.204E-12 0.289E-11   0.259E-12 0.755E-13 0.853E-13   0.880E-23 0.334E-24 -.521E-23   -.201E-11 -.441E-12 -.307E-11
   0.282E-12 0.865E-12 0.268E-11   -.322E-12 0.181E-12 -.143E-12   -.220E-23 -.409E-23 -.233E-23   -.253E-12 -.155E-11 -.133E-11
   -.741E-13 0.438E-12 0.241E-12   -.268E-12 -.533E-14 -.918E-13   -.304E-23 -.260E-23 -.547E-23   -.919E-12 -.479E-12 -.322E-11
   -.108E-12 0.606E-12 0.307E-12   0.266E-13 -.237E-12 -.346E-13   -.522E-23 -.511E-23 -.205E-23   0.939E-13 0.533E-12 -.940E-12
   0.264E-12 0.597E-12 0.226E-11   -.351E-12 0.151E-13 -.799E-14   0.423E-23 -.443E-23 -.180E-23   -.357E-12 0.541E-12 -.160E-12
   0.181E-12 0.108E-11 0.306E-11   0.844E-13 0.118E-12 -.703E-13   0.684E-24 0.189E-23 -.546E-24   -.578E-12 0.486E-12 -.151E-11
   -.169E-12 0.547E-12 0.310E-12   -.241E-12 -.172E-12 -.480E-13   0.302E-23 -.614E-24 0.406E-23   0.663E-12 0.331E-12 0.115E-11
   -.275E-12 0.710E-12 0.431E-12   -.449E-12 -.420E-12 -.933E-13   0.635E-24 -.145E-23 0.392E-23   0.591E-12 -.685E-12 0.182E-11
   0.302E-12 0.502E-12 0.249E-11   -.373E-12 -.284E-12 0.154E-12   0.232E-23 0.231E-23 0.324E-23   0.136E-11 -.298E-12 0.274E-11
   0.158E-12 0.992E-12 0.230E-11   -.508E-12 -.189E-12 0.275E-13   0.348E-23 -.221E-23 0.899E-23   0.101E-11 0.390E-12 0.113E-11
   -.986E-13 0.415E-12 0.626E-12   -.178E-12 -.469E-12 0.186E-13   0.296E-23 0.457E-23 0.440E-23   0.133E-12 -.110E-11 0.312E-11
   -.133E-12 0.539E-12 0.839E-12   -.114E-12 -.153E-12 0.355E-14   -.147E-23 -.216E-23 -.133E-23   -.834E-13 -.274E-11 0.980E-12
   0.269E-12 0.151E-12 0.323E-11   -.464E-12 -.387E-12 0.364E-13   -.566E-23 -.271E-23 0.445E-23   -.134E-12 -.124E-11 0.383E-12
   0.166E-12 0.103E-11 0.257E-11   -.481E-12 -.169E-12 0.489E-13   0.817E-24 -.146E-23 0.219E-23   0.124E-11 -.158E-11 0.161E-11
   0.267E-13 0.613E-12 0.894E-13   0.266E-12 -.144E-12 -.675E-13   -.107E-23 0.687E-23 -.410E-23   0.262E-12 -.167E-11 -.675E-13
   0.110E-12 0.668E-12 0.222E-12   0.691E-12 0.480E-13 -.201E-12   -.365E-23 -.345E-24 -.230E-23   0.275E-12 0.330E-12 -.146E-12
   0.325E-12 0.569E-12 0.301E-11   -.120E-12 0.340E-12 -.169E-13   0.533E-23 0.159E-23 -.621E-23   0.241E-12 -.184E-12 -.994E-12
   0.333E-12 -.110E-11 0.530E-11   0.362E-12 0.234E-12 -.171E-12   0.297E-23 0.337E-23 -.240E-23   0.950E-12 -.762E-13 0.312E-13
   0.128E-12 0.495E-12 0.364E-12   -.425E-12 0.206E-12 -.148E-12   -.320E-23 0.755E-23 -.421E-23   0.472E-13 0.170E-12 -.101E-11
   0.139E-12 0.528E-12 0.393E-12   0.179E-12 -.853E-13 -.977E-13   -.833E-24 -.738E-23 -.715E-23   0.428E-12 0.240E-12 -.839E-12
   0.200E-12 0.331E-12 0.228E-11   -.199E-12 -.888E-15 0.222E-13   -.373E-23 -.159E-23 -.222E-23   0.661E-12 0.820E-12 -.286E-12
   0.396E-12 0.109E-11 0.293E-11   -.560E-13 0.214E-12 -.744E-13   -.131E-23 0.476E-23 -.295E-23   0.364E-12 0.366E-12 -.504E-12
   -.881E-13 0.609E-12 0.441E-12   0.746E-13 -.400E-12 -.284E-13   -.186E-23 -.102E-23 0.541E-23   0.476E-12 0.226E-12 -.121E-12
   0.875E-13 0.644E-12 0.536E-12   0.394E-12 -.291E-12 -.959E-13   0.535E-23 -.937E-23 0.103E-22   0.694E-12 -.399E-12 -.615E-13
   0.325E-13 0.597E-12 0.245E-11   -.124E-13 -.728E-13 0.181E-12   0.249E-23 -.433E-23 0.110E-22   0.167E-11 -.593E-12 0.801E-12
   0.190E-12 0.114E-11 0.247E-11   -.128E-12 -.156E-12 0.391E-13   -.294E-23 0.140E-24 0.260E-23   0.136E-11 0.643E-13 -.345E-12
   -.143E-12 0.753E-12 0.509E-12   -.210E-12 -.281E-12 0.320E-13   0.947E-24 -.143E-24 0.108E-23   0.589E-12 -.164E-11 0.112E-11
   0.798E-13 0.787E-12 0.708E-12   -.355E-13 -.284E-12 0.711E-13   -.507E-23 -.873E-23 0.127E-23   0.647E-12 -.271E-12 0.890E-12
   0.213E-12 0.326E-12 0.281E-11   0.179E-12 -.497E-13 -.977E-14   0.164E-23 -.281E-23 0.327E-24   0.133E-11 -.157E-11 0.407E-12
   0.145E-12 0.107E-11 0.238E-11   -.924E-12 -.391E-12 -.249E-13   -.190E-23 -.995E-24 0.201E-23   0.188E-11 -.410E-12 0.656E-12
   0.479E-13 0.877E-12 0.150E-13   0.270E-12 0.107E-13 -.568E-13   -.660E-23 -.664E-23 -.919E-23   0.192E-12 0.173E-11 0.533E-12
   -.438E-13 0.105E-11 0.109E-12   -.677E-12 -.274E-12 -.746E-13   0.872E-24 0.690E-23 -.252E-23   -.717E-12 0.150E-11 -.163E-11
   0.351E-12 -.185E-11 0.521E-11   0.924E-13 0.353E-12 0.249E-13   -.539E-23 -.184E-24 -.398E-23   -.814E-13 0.470E-12 -.577E-12
   0.257E-12 0.145E-11 0.269E-11   0.369E-12 0.320E-13 -.149E-12   -.588E-23 -.748E-24 -.838E-23   -.526E-12 0.153E-11 -.694E-12
   0.689E-13 0.774E-12 0.255E-12   -.297E-12 0.106E-12 -.846E-13   0.196E-23 0.395E-23 -.808E-24   0.238E-12 0.279E-12 -.116E-11
   0.433E-13 0.900E-12 0.344E-12   -.112E-12 0.214E-12 -.391E-13   -.741E-23 0.159E-23 0.594E-23   0.653E-12 -.793E-12 -.161E-11
   0.363E-12 0.561E-12 0.219E-11   -.178E-14 0.395E-12 0.213E-13   0.834E-24 -.447E-23 -.839E-23   0.641E-12 -.427E-12 -.520E-12
   0.274E-12 -.894E-12 0.527E-11   0.503E-12 0.226E-12 -.348E-13   0.129E-23 -.898E-24 0.764E-24   -.799E-12 -.691E-12 -.146E-11
   0.146E-12 0.740E-12 0.568E-12   0.231E-12 -.249E-13 -.497E-13   -.357E-25 0.310E-23 -.261E-23   0.972E-12 -.477E-12 -.738E-12
   0.153E-12 0.689E-12 0.578E-12   0.142E-12 0.746E-12 -.284E-13   0.341E-23 -.608E-24 0.675E-26   0.132E-11 0.531E-12 0.138E-11
   0.285E-12 0.193E-12 0.247E-11   -.497E-12 -.107E-12 0.174E-12   0.351E-23 -.139E-22 0.631E-23   0.187E-11 0.328E-12 0.318E-12
   0.379E-12 0.121E-11 0.219E-11   0.178E-12 0.496E-12 0.185E-12   -.212E-23 -.323E-23 -.915E-24   0.141E-11 -.476E-12 0.445E-12
[...]
   0.112E-11 0.889E-11 0.455E-11   0.215E-13 0.702E-12 0.604E-13   0.178E-23 0.332E-23 -.561E-23   0.196E-12 0.134E-11 -.547E-12
   0.110E-11 0.139E-10 -.607E-11   -.625E-12 0.142E-12 -.142E-13   0.467E-23 -.164E-23 0.214E-24   -.548E-14 0.304E-11 0.675E-13
   0.899E-12 0.239E-11 -.124E-10   -.213E-13 0.441E-12 -.149E-12   0.220E-23 0.663E-24 -.436E-23   0.926E-13 -.305E-12 -.950E-12
   0.801E-12 0.139E-10 -.154E-11   0.274E-12 0.203E-12 0.135E-12   0.133E-23 -.230E-24 0.161E-23   -.494E-13 -.127E-11 -.119E-11
   0.126E-11 -.965E-11 -.301E-11   -.105E-11 0.531E-12 0.171E-12   0.294E-23 0.330E-23 0.342E-23   0.184E-13 -.712E-12 -.129E-11
   0.111E-11 -.413E-11 -.137E-10   -.103E-11 0.254E-12 0.178E-12   -.125E-24 0.130E-23 -.386E-23   0.426E-12 0.303E-12 -.269E-11
   0.950E-12 0.318E-11 -.108E-11   0.224E-12 0.341E-12 -.711E-14   0.250E-23 -.104E-22 0.349E-23   -.137E-11 -.119E-11 -.974E-13
   0.878E-12 -.418E-11 -.876E-11   -.227E-12 0.760E-12 0.114E-12   -.694E-24 -.225E-23 0.238E-23   -.180E-11 0.193E-12 0.187E-11
   0.136E-11 0.725E-11 -.964E-11   0.189E-12 0.256E-12 0.142E-12   0.746E-25 -.628E-24 0.380E-23   -.523E-12 -.317E-12 0.381E-12
   0.123E-11 -.413E-11 0.753E-11   -.691E-12 0.476E-12 0.114E-12   0.274E-23 -.685E-23 0.407E-23   0.402E-13 -.821E-12 -.181E-12
   0.101E-11 -.160E-10 -.823E-11   0.568E-13 0.568E-13 -.284E-13   0.124E-23 -.422E-23 0.613E-23   -.190E-11 0.437E-12 0.117E-11
   0.905E-12 -.444E-11 0.363E-11   -.199E-12 0.568E-13 0.341E-12   0.118E-23 0.152E-23 0.151E-23   -.594E-12 0.258E-11 0.135E-11
   0.123E-11 0.735E-11 0.115E-10   -.369E-12 0.483E-12 0.199E-12   0.795E-23 0.535E-23 0.307E-23   -.414E-12 0.169E-11 0.137E-11
   0.126E-11 0.122E-10 0.999E-12   -.739E-12 0.313E-12 0.284E-12   -.686E-24 -.770E-23 0.312E-23   -.382E-12 0.190E-11 0.271E-11
   0.133E-09 0.107E-09 0.180E-09   -.214E-11 0.630E-11 -.901E-12   0.818E-22 -.231E-21 0.821E-22   -.414E-11 -.721E-11 -.788E-11

 POSITION                                       TOTAL-FORCE (eV/Angst)
      0.00000      0.00000      0.00000         0.000000     -0.000000      0.000000
      0.00000      1.78500      1.78500         0.000000     -0.000000      0.000000
      1.78500      0.00000      1.78500        -0.000000      0.000000      0.000000
      1.78500      1.78500      0.00000         0.000000     -0.000000     -0.000000
      0.00000      0.00000      3.57000        -0.000000      0.000000     -0.000000
      0.00000      1.78500      5.35500        -0.000000     -0.000000     -0.000000
      1.78500      0.00000      5.35500        -0.000000      0.000000     -0.000000
      1.78500      1.78500      3.57000        -0.000000      0.000000     -0.000000
      0.00000      0.00000      7.14000        -0.000000     -0.000000     -0.000000
      0.00000      1.78500      8.92500        -0.000000      0.000000     -0.000000
      1.78500      0.00000      8.92500         0.000000     -0.000000      0.000000
      1.78500      1.78500      7.14000        -0.000000      0.000000     -0.000000
      0.00000      0.00000     10.71000         0.000000     -0.000000      0.000000
      0.00000      1.78500     12.49500         0.000000     -0.000000      0.000000
      1.78500      0.00000     12.49500         0.000000     -0.000000     -0.000000
      1.78500      1.78500     10.71000         0.000000     -0.000000      0.000000
      0.00000      3.57000      0.00000         0.000000     -0.000000      0.000000
      0.00000      5.35500      1.78500         0.000000     -0.000000      0.000000
      1.78500      3.57000      1.78500         0.000000     -0.000000      0.000000
      1.78500      5.35500      0.00000         0.000000     -0.000000      0.000000
      0.00000      3.57000      3.57000         0.000000     -0.000000      0.000000
      0.00000      5.35500      5.35500         0.000000     -0.000000      0.000000
      1.78500      3.57000      5.35500        -0.000000     -0.000000     -0.000000
      1.78500      5.35500      3.57000         0.000000     -0.000000      0.000000
      0.00000      3.57000      7.14000        -0.000000      0.000000     -0.000000
      0.00000      5.35500      8.92500        -0.000000      0.000000     -0.000000
      1.78500      3.57000      8.92500        -0.000000      0.000000     -0.000000
      1.78500      5.35500      7.14000        -0.000000      0.000000     -0.000000
      0.00000      3.57000     10.71000        -0.000000      0.000000     -0.000000
      0.00000      5.35500     12.49500        -0.000000      0.000000     -0.000000
      1.78500      3.57000     12.49500         0.000000     -0.000000      0.000000
      1.78500      5.35500     10.71000        -0.000000      0.000000     -0.000000
      0.00000      7.14000      0.00000        -0.000000      0.000000     -0.000000
      0.00000      8.92500      1.78500        -0.000000      0.000000     -0.000000
      1.78500      7.14000      1.78500         0.000000     -0.000000      0.000000
      1.78500      8.92500      0.00000        -0.000000      0.000000     -0.000000
      0.00000      7.14000      3.57000         0.000000     -0.000000      0.000000
      0.00000      8.92500      5.35500         0.000000     -0.000000      0.000000
      1.78500      7.14000      5.35500         0.000000      0.000000      0.000000
      1.78500      8.92500      3.57000         0.000000     -0.000000      0.000000
      0.00000      7.14000      7.14000         0.000000     -0.000000      0.000000
      0.00000      8.92500      8.92500        -0.000000     -0.000000     -0.000000
      1.78500      7.14000      8.92500        -0.000000      0.000000     -0.000000
      1.78500      8.92500      7.14000         0.000000     -0.000000      0.000000
      0.00000      7.14000     10.71000        -0.000000      0.000000      0.000000
      0.00000      8.92500     12.49500        -0.000000      0.000000      0.000000
      1.78500      7.14000     12.49500        -0.000000      0.000000     -0.000000
      1.78500      8.92500     10.71000        -0.000000      0.000000     -0.000000
      0.00000     10.71000      0.00000        -0.000000      0.000000      0.000000
      0.00000     12.49500      1.78500        -0.000000      0.000000      0.000000
      1.78500     10.71000      1.78500        -0.000000      0.000000      0.000000
      1.78500     12.49500      0.00000        -0.000000     -0.000000      0.000000
      0.00000     10.71000      3.57000        -0.000000      0.000000     -0.000000
      0.00000     12.49500      5.35500        -0.000000      0.000000     -0.000000
      1.78500     10.71000      5.35500         0.000000     -0.000000      0.000000
      1.78500     12.49500      3.57000        -0.000000      0.000000     -0.000000
      0.00000     10.71000      7.14000         0.000000     -0.000000      0.000000
      0.00000     12.49500      8.92500         0.000000     -0.000000      0.000000
      1.78500     10.71000      8.92500         0.000000      0.000000     -0.000000
      1.78500     12.49500      7.14000         0.000000     -0.000000      0.000000
[...]
     10.71000     12.49500      1.78500         0.000000     -0.000000      0.000000
     12.49500     10.71000      1.78500        -0.000000      0.000000      0.000000
     12.49500     12.49500      0.00000         0.000000     -0.000000      0.000000
     10.71000     10.71000      3.57000        -0.000000      0.000000     -0.000000
     10.71000     12.49500      5.35500        -0.000000     -0.000000     -0.000000
     12.49500     10.71000      5.35500        -0.000000      0.000000     -0.000000
     12.49500     12.49500      3.57000        -0.000000      0.000000     -0.000000
     10.71000     10.71000      7.14000        -0.000000      0.000000     -0.000000
     10.71000     12.49500      8.92500        -0.000000      0.000000     -0.000000
     12.49500     10.71000      8.92500         0.000000     -0.000000      0.000000
     12.49500     12.49500      7.14000        -0.000000      0.000000     -0.000000
     10.71000     10.71000     10.71000         0.000000     -0.000000      0.000000
     10.71000     12.49500     12.49500         0.000000     -0.000000      0.000000
     12.49500     10.71000     12.49500         0.000000     -0.000000     -0.000000
     12.49500     12.49500     10.71000         0.000000     -0.000000      0.000000
    total drift:                                0.000000      0.000000      0.000000

  FREE ENERGIE OF THE ION-ELECTRON SYSTEM (eV)
  free  energy   TOTEN  =     -1355.32979504 eV

  energy  without entropy=    -1353.81853247  energy(sigma->0) =    -1354.57416375