 vasp.5.4.4.18Apr17-6-g9f103f2a35 (build May 02 2017 15:33:50) complex

 executed on Intel-16.0.3.210-OMP date 2018.07.08  13:39:14

 INCAR:
 POTCAR:    PAW Al_GW 19Mar2012
 POTCAR:    PAW_PBE N 08Apr2002

 POTCAR:    PAW Al_GW 19Mar2012
   VRHFIN =Al: s2p1

   TITEL  = PAW Al_GW 19Mar2012
   POMASS =   26.982; ZVAL   =    3.000    mass and valenz
   ENMAX  =  240.300; ENMIN  =  180.225 eV

 POTCAR:    PAW_PBE N 08Apr2002
   VRHFIN =N: s2p3

   TITEL  = PAW_PBE N 08Apr2002
   POMASS =   14.001; ZVAL   =    5.000    mass and valenz
   ENMAX  =  400.000; ENMIN  =  300.000 eV

 Optimization of the real space projectors (new method)

 maximal supplied QI-value         = 18.90
 optimisation between [QCUT,QGAM] = [  8.69, 17.57] = [ 21.16, 86.49] Ry
 Optimized for a Real-space Cutoff    1.59 Angstroem

   l    n(q)    QCUT    max X(q) W(low)/X(q) W(high)/X(q)  e(spline)
   0      8     8.693    11.519    0.12E-03    0.31E-04    0.21E-06
   0      8     8.693     5.834    0.89E-04    0.32E-04    0.16E-06
   1      8     8.693    10.132    0.25E-03    0.39E-03    0.25E-06
   1      8     8.693     3.004    0.16E-03    0.27E-03    0.22E-06
   2      7     8.693     3.169    0.39E-03    0.93E-03    0.44E-06
   2      7     8.693     1.605    0.70E-04    0.91E-04    0.19E-06
 Optimization of the real space projectors (new method)

 maximal supplied QI-value         = 25.13
 optimisation between [QCUT,QGAM] = [  8.80, 17.59] = [ 21.67, 86.68] Ry
 Optimized for a Real-space Cutoff    2.14 Angstroem

   l    n(q)    QCUT    max X(q) W(low)/X(q) W(high)/X(q)  e(spline)
   0     11     8.797    79.467    0.70E-04    0.19E-04    0.19E-05
   0     11     8.797    66.151    0.68E-04    0.18E-04    0.19E-05
   1     11     8.797     6.738    0.26E-03    0.11E-02    0.73E-05
   1     11     8.797     5.013    0.25E-03    0.11E-02    0.72E-05
  PAW Al_GW 19Mar2012                   :
  PAW_PBE N 08Apr2002                   :

 POSCAR: New structure
  positions in direct lattice
 exchange correlation table for  LEXCH =        8
   RHO(1)=    0.500       N(1)  =     2000
   RHO(2)=  100.500       N(2)  =     4000

 ion  position               nearest neighbor table
   1  0.444  0.444  0.079-
   2  0.444  0.778  0.079-
   3  0.444  0.111  0.079-
   4  0.778  0.444  0.079-
   5  0.778  0.778  0.079-
   6  0.778  0.111  0.079-
   7  0.111  0.444  0.079-
   8  0.111  0.778  0.079-
   9  0.111  0.111  0.079-
  10  0.556  0.556  0.157-
  11  0.556  0.889  0.157-
  12  0.556  0.222  0.157-
  13  0.889  0.556  0.157-
  14  0.889  0.889  0.157-
  15  0.889  0.222  0.157-
  16  0.222  0.556  0.157-
  17  0.222  0.889  0.157-
  18  0.222  0.222  0.157-
  19  0.667  0.667  0.234-
  20  0.667  0.000  0.234-
  21  0.667  0.333  0.234-
  22  0.000  0.667  0.234-
  23  0.000  0.000  0.234-
  24  0.000  0.333  0.234-
  25  0.333  0.667  0.234-
  26  0.333  0.000  0.234-
  27  0.333  0.333  0.234-
  28  0.778  0.778  0.312-
  29  0.778  0.111  0.312-
  30  0.778  0.444  0.312-
  31  0.111  0.778  0.312-
  32  0.111  0.111  0.312-
  33  0.111  0.444  0.312-
  34  0.444  0.778  0.312-
  35  0.444  0.111  0.312-
  36  0.444  0.444  0.312-
  37  0.889  0.889  0.390-
  38  0.889  0.222  0.390-
  39  0.889  0.556  0.390-
  40  0.222  0.889  0.390-
  41  0.222  0.222  0.390-
  42  0.222  0.556  0.390-
  43  0.556  0.889  0.390-
  44  0.556  0.222  0.390-
  45  0.556  0.556  0.390-
  46  0.000  0.000  0.466-
  47  0.000  0.333  0.466-
  48  0.000  0.667  0.466-
  49  0.333  0.000  0.466-
  50  0.333  0.333  0.466-
  51  0.333  0.667  0.466- 253 1.80
  52  0.667  0.000  0.466-
  53  0.667  0.333  0.466-
  54  0.667  0.667  0.466-
  55  0.111  0.111  0.545-
  56  0.111  0.444  0.545-
  57  0.111  0.778  0.545-
  58  0.444  0.111  0.545-
  59  0.444  0.444  0.545-
  60  0.444  0.778  0.545-
  61  0.778  0.111  0.545-
  62  0.778  0.444  0.545-
  63  0.778  0.778  0.545-
  64  0.278  0.278  0.079-
  65  0.278  0.611  0.079-
  66  0.278  0.944  0.079-
  67  0.611  0.278  0.079-
  68  0.611  0.611  0.079-
  69  0.611  0.944  0.079-
  70  0.944  0.278  0.079-
  71  0.944  0.611  0.079-
  72  0.944  0.944  0.079-
  73  0.389  0.389  0.157-
  74  0.389  0.722  0.157-
  75  0.389  0.056  0.157-
  76  0.722  0.389  0.157-
  77  0.722  0.722  0.157-
  78  0.722  0.056  0.157-
  79  0.056  0.389  0.157-
  80  0.056  0.722  0.157-
  81  0.056  0.056  0.157-
  82  0.500  0.500  0.234-
  83  0.500  0.833  0.234-
  84  0.500  0.167  0.234-
  85  0.833  0.500  0.234-
  86  0.833  0.833  0.234-
  87  0.833  0.167  0.234-
  88  0.167  0.500  0.234-
  89  0.167  0.833  0.234-
  90  0.167  0.167  0.234-
  91  0.611  0.611  0.312-
  92  0.611  0.944  0.312-
  93  0.611  0.278  0.312-
  94  0.944  0.611  0.312-
  95  0.944  0.944  0.312-
  96  0.944  0.278  0.312-
  97  0.278  0.611  0.312-
  98  0.278  0.944  0.312-
  99  0.278  0.278  0.312-
 100  0.722  0.722  0.390-
 101  0.722  0.056  0.390-
 102  0.722  0.389  0.390-
 103  0.056  0.722  0.390-
 104  0.056  0.056  0.390-
 105  0.056  0.389  0.390-
 106  0.389  0.722  0.390-
 107  0.389  0.056  0.390-
 108  0.389  0.389  0.390-
 109  0.833  0.833  0.466-
 110  0.833  0.167  0.466-
 111  0.833  0.500  0.466-
 112  0.167  0.833  0.466-
 113  0.167  0.167  0.466-
 114  0.167  0.500  0.466-
 115  0.500  0.833  0.466-
 116  0.500  0.167  0.466-
 117  0.500  0.500  0.466- 253 1.80
 118  0.944  0.944  0.545-
 119  0.944  0.278  0.545-
 120  0.944  0.611  0.545-
 121  0.278  0.944  0.545-
 122  0.278  0.278  0.545-
 123  0.278  0.611  0.545-
 124  0.611  0.944  0.545-
 125  0.611  0.278  0.545-
 126  0.611  0.611  0.545-
 127  0.278  0.444  0.079-
 128  0.278  0.778  0.079-
 129  0.278  0.111  0.079-
 130  0.611  0.444  0.079-
 131  0.611  0.778  0.079-
 132  0.611  0.111  0.079-
 133  0.944  0.444  0.079-
 134  0.944  0.778  0.079-
 135  0.944  0.111  0.079-
 136  0.389  0.556  0.157-
 137  0.389  0.889  0.157-
 138  0.389  0.222  0.157-
 139  0.722  0.556  0.157-
 140  0.722  0.889  0.157-
 141  0.722  0.222  0.157-
 142  0.056  0.556  0.157-
 143  0.056  0.889  0.157-
 144  0.056  0.222  0.157-
 145  0.500  0.667  0.234-
 146  0.500  0.000  0.234-
 147  0.500  0.333  0.234-
 148  0.833  0.667  0.234-
 149  0.833  0.000  0.234-
 150  0.833  0.333  0.234-
 151  0.167  0.667  0.234-
 152  0.167  0.000  0.234-
 153  0.167  0.333  0.234-
 154  0.611  0.778  0.312-
 155  0.611  0.111  0.312-
 156  0.611  0.444  0.312-
 157  0.944  0.778  0.312-
 158  0.944  0.111  0.312-
 159  0.944  0.444  0.312-
 160  0.278  0.778  0.312-
 161  0.278  0.111  0.312-
 162  0.278  0.444  0.312-
 163  0.722  0.889  0.390-
 164  0.722  0.222  0.390-
 165  0.722  0.556  0.390-
 166  0.056  0.889  0.390-
 167  0.056  0.222  0.390-
 168  0.056  0.556  0.390-
 169  0.389  0.889  0.390-
 170  0.389  0.222  0.390-
 171  0.389  0.556  0.390-
 172  0.833  0.000  0.466-
 173  0.833  0.333  0.466-
 174  0.833  0.667  0.466-
 175  0.167  0.000  0.466-
 176  0.167  0.333  0.466-
 177  0.167  0.667  0.466-
[...]
 225  0.444  0.278  0.312-
 226  0.889  0.722  0.390-
 227  0.889  0.056  0.390-
 228  0.889  0.389  0.390-
 229  0.222  0.722  0.390-
 230  0.222  0.056  0.390-
 231  0.222  0.389  0.390-
 232  0.556  0.722  0.390-
 233  0.556  0.056  0.390-
 234  0.556  0.389  0.390-
 235  0.000  0.833  0.466-
 236  0.000  0.167  0.466-
 237  0.000  0.500  0.466-
 238  0.333  0.833  0.466-
 239  0.333  0.167  0.466-
 240  0.333  0.500  0.466- 253 1.80
 241  0.667  0.833  0.466-
 242  0.667  0.167  0.466-
 243  0.667  0.500  0.466-
 244  0.111  0.944  0.545-
 245  0.111  0.278  0.545-
 246  0.111  0.611  0.545-
 247  0.444  0.944  0.545-
 248  0.444  0.278  0.545-
 249  0.444  0.611  0.545-
 250  0.778  0.944  0.545-
 251  0.778  0.278  0.545-
 252  0.778  0.611  0.545-
 253  0.389  0.556  0.490-  51 1.80 240 1.80 117 1.80

  LATTYP: Found a hexagonal cell.
 ALAT       =    17.1805734625
 C/A-ratio  =     1.7461582447

  Lattice vectors:

 A1 = (   0.0000000000,  -8.5902867312,  14.8788130701)
 A2 = (   0.0000000000,  17.1805734625,   0.0000000000)
 A3 = ( -30.0000000000,   0.0000000000,   0.0000000000)

Analysis of symmetry for initial positions (statically):
 Subroutine PRICEL returns:
 Original cell was already a primitive cell.

 Routine SETGRP: Setting up the symmetry group for a
 hexagonal supercell.

 Subroutine GETGRP returns: Found  6 space group operations
 (whereof  1 operations were pure point group operations)
 out of a pool of 24 trial point group operations.

The static configuration has the point symmetry C_1 .
 The point group associated with its full space group is C_3v.

Analysis of symmetry for dynamics (positions and initial velocities):
 Subroutine PRICEL returns:
 Original cell was already a primitive cell.

 Routine SETGRP: Setting up the symmetry group for a
 hexagonal supercell.

 Subroutine GETGRP returns: Found  6 space group operations
 (whereof  1 operations were pure point group operations)
 out of a pool of 24 trial point group operations.

The dynamic configuration has the point symmetry C_1 .
 The point group associated with its full space group is C_3v.

 Subroutine INISYM returns: Found  6 space group operations
 (whereof  1 operations are pure point group operations),
 and found     1 'primitive' translations

 KPOINTS: Automatic generation

Automatic generation of k-mesh.
Space group operators:
 irot       det(A)        alpha          n_x          n_y          n_z        tau_x        tau_y        tau_z
    1     1.000000     0.000000     1.000000     0.000000     0.000000     0.000000     0.000000     0.000000
    2     1.000000   120.000000     1.000000     0.000000     0.000000    -0.166667    -0.500000     0.000000
    3     1.000000   120.000000    -1.000000     0.000000     0.000000     0.333333    -0.833333     0.000000
    4    -1.000000   180.000000     0.000000    -0.500000     0.866025     0.833333    -0.833333     0.000000
    5    -1.000000   180.000000     0.000000     1.000000     0.000000    -0.666667     0.000000     0.000000
    6    -1.000000   180.000000     0.000000     0.500000     0.866025     0.000000    -0.500000     0.000000

 Subroutine IBZKPT returns following result:

 Found      2 irreducible k-points:

 Following reciprocal coordinates:
            Coordinates               Weight
  0.000000  0.000000  0.000000      1.000000
  0.500000  0.000000  0.000000      3.000000

 Following cartesian coordinates:
            Coordinates               Weight
  0.000000  0.000000  0.000000      1.000000
  0.000000 -0.029103  0.016802      3.000000

 SYSTEM =  NiAl
 POSCAR =  New structure

 Startparameter for this run:
   NWRITE =      2    write-flag & timer
   PREC   = normal    normal or accurate (medium, high low for compatibility)
   ISTART =      0    job   : 0-new  1-cont  2-samecut
   ICHARG =      2    charge: 1-file 2-atom 10-const
   ISPIN  =      1    spin polarized calculation?
   LNONCOLLINEAR =      F non collinear calculations
   LSORBIT =      F    spin-orbit coupling
   INIWAV =      1    electr: 0-lowe 1-rand  2-diag
   LASPH  =      F    aspherical Exc in radial PAW
   METAGGA=      F    non-selfconsistent MetaGGA calc.

 Electronic Relaxation 1
[...]

 FORCES acting on ions
    electron-ion (+dipol)            ewald-force                    non-local-force                 convergence-correction
   0.315E+03 -.499E-04 -.143E+00   -.314E+03 -.351E-11 0.143E+00   -.891E+00 -.343E-17 0.957E-03   -.145E-03 0.138E-08 0.238E-04
   0.315E+03 0.230E+00 0.102E+00   -.314E+03 -.232E+00 -.127E+00   -.901E+00 0.179E-02 0.253E-01   -.129E-03 -.201E-04 -.430E-04
   0.315E+03 0.109E+00 -.280E+00   -.314E+03 -.900E-01 0.244E+00   -.853E+00 -.191E-01 0.360E-01   -.115E-03 0.167E-04 0.170E-04
   0.315E+03 0.183E+00 0.511E-01   -.314E+03 -.175E+00 -.715E-01   -.874E+00 -.774E-02 0.210E-01   -.114E-03 -.381E-04 0.138E-04
   0.315E+03 0.115E-04 0.200E+00   -.314E+03 0.336E-11 -.185E+00   -.900E+00 0.805E-17 -.150E-01   -.119E-03 -.214E-09 -.997E-05
   0.315E+03 -.109E+00 -.280E+00   -.314E+03 0.900E-01 0.244E+00   -.853E+00 0.191E-01 0.360E-01   -.115E-03 -.167E-04 0.170E-04
   0.315E+03 -.183E+00 0.511E-01   -.314E+03 0.175E+00 -.715E-01   -.874E+00 0.774E-02 0.210E-01   -.114E-03 0.381E-04 0.138E-04
   0.315E+03 -.230E+00 0.102E+00   -.314E+03 0.232E+00 -.127E+00   -.901E+00 -.179E-02 0.253E-01   -.129E-03 0.201E-04 -.430E-04
   0.315E+03 0.483E-04 0.302E+00   -.314E+03 0.449E-11 -.225E+00   -.870E+00 -.520E-17 -.772E-01   -.983E-04 -.414E-09 -.249E-04
   0.213E+03 0.234E+00 0.708E-01   -.212E+03 -.228E+00 -.476E-01   -.211E+00 -.587E-02 -.233E-01   -.227E-03 -.650E-04 -.245E-05
   0.212E+03 -.918E-02 -.413E-01   -.212E+03 -.397E-01 0.220E-02   -.170E+00 0.494E-01 0.398E-01   -.200E-03 -.193E-04 -.250E-04
   0.212E+03 0.810E-05 -.394E+00   -.212E+03 0.480E-11 0.372E+00   -.114E+00 -.175E-18 0.209E-01   -.208E-03 0.290E-09 0.506E-04
   0.212E+03 -.184E-04 -.157E-01   -.211E+03 -.820E-12 -.138E-02   -.136E+00 -.156E-17 0.178E-01   -.209E-03 0.222E-09 -.973E-06
   0.212E+03 0.917E-02 -.413E-01   -.212E+03 0.397E-01 0.220E-02   -.170E+00 -.494E-01 0.398E-01   -.200E-03 0.193E-04 -.250E-04
   0.212E+03 -.284E-01 -.195E+00   -.211E+03 0.436E-02 0.163E+00   -.115E+00 0.249E-01 0.305E-01   -.198E-03 -.416E-04 0.788E-05
   0.213E+03 -.234E+00 0.708E-01   -.212E+03 0.228E+00 -.476E-01   -.211E+00 0.587E-02 -.233E-01   -.227E-03 0.650E-04 -.246E-05
   0.212E+03 0.790E-05 0.340E+00   -.212E+03 -.540E-12 -.314E+00   -.101E+00 0.907E-18 -.242E-01   -.213E-03 -.753E-09 -.675E-04
   0.212E+03 0.284E-01 -.195E+00   -.211E+03 -.436E-02 0.163E+00   -.115E+00 -.249E-01 0.305E-01   -.198E-03 0.416E-04 0.788E-05
   0.106E+03 0.441E+00 0.236E+00   -.106E+03 -.491E+00 -.216E+00   0.160E+00 0.507E-01 -.193E-01   -.180E-03 -.637E-04 -.157E-04
   0.106E+03 0.251E-04 0.792E-01   -.106E+03 -.235E-11 -.207E-01   0.166E+00 0.863E-18 -.585E-01   -.165E-03 -.356E-09 0.283E-04
   0.107E+03 0.595E+00 -.546E+00   -.107E+03 -.588E+00 0.575E+00   0.174E+00 -.709E-02 -.286E-01   -.188E-03 -.583E-04 0.504E-04
   0.106E+03 -.441E+00 0.236E+00   -.106E+03 0.491E+00 -.216E+00   0.160E+00 -.507E-01 -.193E-01   -.181E-03 0.637E-04 -.157E-04
   0.106E+03 -.178E+00 0.486E+00   -.106E+03 0.165E+00 -.464E+00   0.135E+00 0.128E-01 -.209E-01   -.169E-03 -.267E-05 -.455E-04
   0.106E+03 -.229E-04 -.159E-01   -.106E+03 -.464E-11 0.379E-01   0.152E+00 -.903E-18 -.210E-01   -.182E-03 0.102E-08 -.289E-05
   0.108E+03 -.353E-05 0.991E+00   -.108E+03 -.107E-11 -.879E+00   0.118E+00 0.197E-17 -.111E+00   -.195E-03 -.129E-09 -.483E-04
   0.106E+03 0.178E+00 0.486E+00   -.106E+03 -.165E+00 -.464E+00   0.135E+00 -.128E-01 -.209E-01   -.169E-03 0.267E-05 -.455E-04
   0.107E+03 -.595E+00 -.546E+00   -.107E+03 0.588E+00 0.575E+00   0.174E+00 0.709E-02 -.286E-01   -.188E-03 0.583E-04 0.504E-04
   0.215E+01 0.331E-04 0.361E+00   -.218E+01 0.779E-12 -.266E+00   0.278E-01 0.138E-17 -.951E-01   -.284E-04 0.278E-10 -.168E-04
   0.218E+01 0.415E+00 -.611E+00   -.219E+01 -.427E+00 0.607E+00   0.725E-02 0.111E-01 0.470E-02   -.370E-04 -.111E-04 0.387E-04
   0.257E+01 0.130E+01 -.448E+00   -.262E+01 -.130E+01 0.453E+00   0.488E-01 0.555E-02 -.505E-02   -.610E-04 -.863E-04 0.348E-04
   0.387E+01 -.131E+01 0.163E+01   -.384E+01 0.129E+01 -.162E+01   -.345E-01 0.199E-01 -.162E-01   -.652E-04 0.696E-04 -.792E-04
   0.189E+01 0.371E-04 0.598E+00   -.186E+01 -.166E-11 -.544E+00   -.332E-01 0.120E-17 -.549E-01   -.231E-04 -.234E-08 -.190E-04
   0.257E+01 -.130E+01 -.448E+00   -.262E+01 0.130E+01 0.453E+00   0.488E-01 -.555E-02 -.505E-02   -.610E-04 0.863E-04 0.348E-04
   0.387E+01 0.131E+01 0.163E+01   -.384E+01 -.129E+01 -.162E+01   -.345E-01 -.199E-01 -.162E-01   -.652E-04 -.696E-04 -.792E-04
   0.218E+01 -.415E+00 -.611E+00   -.219E+01 0.427E+00 0.607E+00   0.725E-02 -.111E-01 0.470E-02   -.370E-04 0.111E-04 0.387E-04
   0.628E+01 -.598E-04 -.194E+01   -.628E+01 0.525E-12 0.190E+01   -.586E-02 -.842E-19 0.405E-01   -.117E-03 0.149E-09 0.513E-04
   -.102E+03 -.707E+00 0.872E+00   0.102E+03 0.710E+00 -.819E+00   -.226E+00 -.307E-02 -.532E-01   0.122E-03 0.494E-04 -.255E-04
   -.102E+03 0.105E+01 -.578E+00   0.102E+03 -.102E+01 0.595E+00   -.179E+00 -.298E-01 -.166E-01   0.112E-03 -.635E-04 0.203E-04
   -.102E+03 -.468E-04 -.143E+00   0.102E+03 -.430E-11 0.176E+00   -.198E+00 0.254E-17 -.322E-01   0.111E-03 -.115E-08 0.379E-06
   -.101E+03 0.401E-04 0.395E+01   0.101E+03 -.806E-12 -.397E+01   -.151E+00 -.338E-17 0.211E-01   0.102E-03 -.187E-08 -.130E-03
   -.102E+03 -.105E+01 -.578E+00   0.102E+03 0.102E+01 0.595E+00   -.179E+00 0.298E-01 -.166E-01   0.112E-03 0.635E-04 0.203E-04
   -.966E+02 -.604E+01 -.751E-01   0.965E+02 0.613E+01 0.592E-01   0.123E+00 -.885E-01 0.154E-01   0.879E-04 0.117E-03 0.239E-04
   -.102E+03 0.707E+00 0.872E+00   0.102E+03 -.710E+00 -.819E+00   -.226E+00 0.307E-02 -.532E-01   0.122E-03 -.494E-04 -.255E-04
   -.101E+03 0.257E-04 -.382E+01   0.101E+03 0.746E-12 0.378E+01   -.167E+00 0.103E-17 0.336E-01   0.105E-03 0.200E-08 0.140E-03
   -.966E+02 0.604E+01 -.750E-01   0.965E+02 -.613E+01 0.592E-01   0.123E+00 0.885E-01 0.154E-01   0.879E-04 -.117E-03 0.239E-04
   -.209E+03 -.469E+00 0.180E+01   0.209E+03 0.463E+00 -.184E+01   0.211E+00 0.626E-02 0.334E-01   0.186E-03 -.313E-05 -.491E-04
   -.210E+03 -.335E-04 -.760E+00   0.210E+03 -.456E-12 0.685E+00   0.116E+00 0.656E-19 0.758E-01   0.171E-03 -.303E-09 0.310E-05
   -.209E+03 -.363E+01 0.101E+01   0.208E+03 0.363E+01 -.982E+00   0.185E+00 -.592E-02 -.232E-01   0.188E-03 0.990E-04 -.463E-04
   -.209E+03 0.469E+00 0.180E+01   0.209E+03 -.463E+00 -.184E+01   0.211E+00 -.626E-02 0.334E-01   0.186E-03 0.313E-05 -.491E-04
   -.208E+03 -.526E+01 -.615E+01   0.208E+03 0.537E+01 0.629E+01   0.100E+00 -.106E+00 -.139E+00   0.191E-03 0.872E-04 0.105E-03
   -.184E+03 0.732E-05 0.402E+02   0.183E+03 -.676E-12 -.409E+02   0.797E+00 0.834E-18 0.772E+00   0.781E-04 0.103E-07 -.365E-03
   -.209E+03 0.415E-04 -.881E+00   0.209E+03 -.135E-11 0.849E+00   0.965E-01 0.941E-18 0.328E-01   0.183E-03 0.317E-08 0.329E-04
   -.208E+03 0.526E+01 -.615E+01   0.208E+03 -.537E+01 0.629E+01   0.100E+00 0.106E+00 -.139E+00   0.191E-03 -.872E-04 0.105E-03
   -.209E+03 0.363E+01 0.101E+01   0.208E+03 -.363E+01 -.982E+00   0.185E+00 0.592E-02 -.232E-01   0.188E-03 -.990E-04 -.463E-04
   -.315E+03 0.615E-04 0.838E+00   0.314E+03 0.359E-11 -.964E+00   0.836E+00 -.123E-17 0.127E+00   0.103E-03 -.117E-08 -.234E-04
   -.315E+03 -.412E+01 -.149E+01   0.314E+03 0.422E+01 0.148E+01   0.923E+00 -.102E+00 0.964E-02   0.130E-03 0.836E-04 0.114E-04
   -.316E+03 -.534E+01 0.590E+01   0.315E+03 0.538E+01 -.600E+01   0.877E+00 -.389E-01 0.104E+00   0.171E-03 0.768E-04 -.978E-04
   -.315E+03 -.734E+00 -.162E+01   0.314E+03 0.739E+00 0.155E+01   0.809E+00 -.502E-02 0.686E-01   0.102E-03 0.954E-06 0.154E-04
   -.341E+03 -.113E-04 -.328E+02   0.342E+03 -.175E-11 0.334E+02   -.115E+01 0.196E-16 -.669E+00   0.251E-03 -.707E-08 0.156E-03
   -.316E+03 0.534E+01 0.590E+01   0.315E+03 -.538E+01 -.600E+01   0.877E+00 0.389E-01 0.104E+00   0.171E-03 -.768E-04 -.978E-04
[...]
   -.184E+03 -.348E+02 -.201E+02   0.183E+03 0.354E+02 0.205E+02   0.797E+00 -.668E+00 -.386E+00   0.781E-04 0.317E-03 0.183E-03
   -.209E+03 0.763E+00 0.441E+00   0.209E+03 -.735E+00 -.424E+00   0.965E-01 -.284E-01 -.164E-01   0.183E-03 -.285E-04 -.165E-04
   -.209E+03 0.942E+00 -.364E+01   0.208E+03 -.966E+00 0.364E+01   0.185E+00 0.231E-01 0.649E-02   0.188E-03 -.941E-05 0.109E-03
   -.208E+03 0.796E+01 -.148E+01   0.208E+03 -.813E+01 0.150E+01   0.100E+00 0.174E+00 -.223E-01   0.191E-03 -.134E-03 0.232E-04
   -.315E+03 -.773E+00 0.431E+01   0.314E+03 0.832E+00 -.440E+01   0.923E+00 -.592E-01 0.833E-01   0.130E-03 0.319E-04 -.781E-04
   -.315E+03 -.726E+00 -.419E+00   0.314E+03 0.835E+00 0.482E+00   0.836E+00 -.110E+00 -.637E-01   0.103E-03 0.203E-04 0.117E-04
   -.316E+03 -.778E+01 0.168E+01   0.315E+03 0.789E+01 -.166E+01   0.877E+00 -.109E+00 -.183E-01   0.171E-03 0.123E-03 -.176E-04
   -.315E+03 0.104E+01 0.145E+01   0.314E+03 -.975E+00 -.142E+01   0.809E+00 -.619E-01 -.299E-01   0.102E-03 -.129E-04 -.852E-05
   -.316E+03 -.244E+01 -.758E+01   0.315E+03 0.251E+01 0.766E+01   0.877E+00 -.706E-01 -.856E-01   0.171E-03 0.463E-04 0.115E-03
   -.341E+03 0.284E+02 0.164E+02   0.342E+03 -.290E+02 -.167E+02   -.115E+01 0.579E+00 0.334E+00   0.251E-03 -.135E-03 -.781E-04
   -.315E+03 -.323E+00 -.187E+00   0.314E+03 0.316E+00 0.182E+00   0.867E+00 0.679E-02 0.392E-02   0.578E-04 0.161E-04 0.928E-05
   -.315E+03 0.335E+01 -.283E+01   0.314E+03 -.339E+01 0.292E+01   0.923E+00 0.425E-01 -.930E-01   0.130E-03 -.517E-04 0.667E-04
   -.315E+03 0.177E+01 0.175E+00   0.314E+03 -.171E+01 -.136E+00   0.809E+00 -.569E-01 -.386E-01   0.102E-03 -.138E-04 -.687E-05
   -.428E+03 0.160E-03 -.287E-04   0.430E+03 -.342E-11 0.123E-11   -.140E+01 0.119E-16 0.104E-16   0.398E-02 -.184E-07 0.397E-08
   0.453E+01 0.139E-03 -.614E-05   0.574E-11 0.384E-13 0.555E-13   -.447E+01 -.571E-15 0.337E-15   -.168E-02 -.169E-07 0.443E-08

 POSITION                                       TOTAL-FORCE (eV/Angst)
      2.33972    -11.45372     -6.61114         0.001053     -0.000000      0.000432
      2.36173    -14.31620    -11.57419         0.000144     -0.000258      0.000233
      2.36321     -8.58884     -1.65534        -0.000043     -0.000338      0.000343
      2.36420    -17.18294     -6.61190         0.000008      0.000185      0.000568
      2.36933    -20.04400    -11.57080        -0.000715      0.000000      0.000368
      2.36321    -14.31859     -1.65534        -0.000043      0.000338      0.000343
      2.36420     -5.72449     -6.61190         0.000008     -0.000185      0.000568
      2.36173     -8.59124    -11.57419         0.000144      0.000258      0.000233
      2.36200     -2.86343     -1.64966        -0.000614     -0.000000      0.000231
      4.70157    -14.31301     -8.26465         0.000532      0.000047     -0.000047
      4.71121    -17.18223    -13.22584        -0.000368      0.000512      0.000689
      4.70579    -11.45372     -3.30705         0.000541      0.000000     -0.000756
      4.70794    -20.04400     -8.26520         0.000229     -0.000000      0.000656
      4.71121    -22.90577    -13.22584        -0.000368     -0.000512      0.000689
      4.70683    -17.18290     -3.30661        -0.000422      0.000851     -0.000550
      4.70157     -8.59443     -8.26465         0.000532     -0.000047     -0.000047
      4.70424    -11.45372    -13.22361        -0.000448      0.000000      0.001020
      4.70683     -5.72453     -3.30661        -0.000422     -0.000851     -0.000550
      7.01048    -17.18164     -9.91802         0.000569      0.000632      0.000537
      7.01640    -11.45372      0.00237        -0.000135      0.000000      0.000015
      7.00473    -14.31342     -4.96282         0.000280      0.000223      0.000589
      7.01048     -5.72579     -9.91802         0.000569     -0.000632      0.000537
      7.01217     -0.00298      0.00318         0.000060      0.000057      0.000305
      7.00937     -2.86343     -4.95764         0.000442     -0.000000      0.001057
      7.01217    -11.45372     -9.90983        -0.000514      0.000000      0.000920
      7.01217     -5.72388      0.00318         0.000060     -0.000057      0.000305
      7.00473     -8.59402     -4.96282         0.000280     -0.000223      0.000589
      9.34445    -20.04400    -11.56309        -0.001207      0.000000      0.000359
      9.35099    -14.31807     -1.65639         0.000023     -0.000333      0.000569
      9.34538    -17.17630     -6.61120         0.000367     -0.000463      0.000245
      9.34368     -8.59255    -11.56933         0.000070      0.000164     -0.000402
      9.35187     -2.86343     -1.65062        -0.001120     -0.000000     -0.000967
      9.34538     -5.73113     -6.61120         0.000367      0.000463      0.000245
      9.34368    -14.31489    -11.56933         0.000070     -0.000164     -0.000402
      9.35099     -8.58936     -1.65639         0.000023      0.000333      0.000569
      9.34209    -11.45372     -6.61277         0.001243      0.000000     -0.000123
     11.68609    -22.90898    -13.21983        -0.000980     -0.000351     -0.000114
     11.69102    -17.18164     -3.30873        -0.000374     -0.000246      0.000101
     11.68895    -20.04400     -8.26347        -0.000735     -0.000000      0.000435
     11.69554    -11.45372    -13.21569        -0.001004      0.000000      0.001433
     11.69102     -5.72579     -3.30873        -0.000374      0.000246      0.000101
     11.67526     -8.59538     -8.27003         0.000309      0.000568     -0.000468
     11.68609    -17.17903    -13.21983        -0.000980      0.000351     -0.000114
     11.68901    -11.45372     -3.31974        -0.000414      0.000000     -0.000296
     11.67526    -14.31205     -8.27003         0.000309     -0.000568     -0.000468
     13.98940     -0.00180     -0.00462        -0.000301      0.000636     -0.000036
     14.00440     -2.86343     -4.95847         0.000005     -0.000000      0.000957
     13.98508     -5.72051     -9.91647         0.000390      0.000404      0.000397
     13.98940     -5.72506     -0.00462        -0.000301     -0.000636     -0.000036
     14.00207     -8.58815     -4.95520         0.000295      0.000207     -0.000308
     13.97441    -11.45372     -9.95976         0.003104      0.000000      0.004750
     13.97873    -11.45372      0.00398        -0.001091     -0.000000      0.000127
     14.00207    -14.31928     -4.95520         0.000295     -0.000207     -0.000308
     13.98508    -17.18692     -9.91647         0.000390     -0.000404      0.000397
     16.35818     -2.86343     -1.64867        -0.000649      0.000000      0.000963
     16.34519     -5.73636     -6.62733        -0.000281     -0.000745     -0.000197
     16.33249     -8.57337    -11.57448         0.000621     -0.000194      0.000427
     16.33702     -8.58958     -1.64476         0.000174      0.000016      0.000120
     16.53131    -11.45372     -6.63888        -0.001381      0.000000      0.000293
     16.33249    -14.33407    -11.57448         0.000621      0.000194      0.000427
[...]
     13.98940     -7.15367     -2.47905        -0.000301     -0.000287      0.000568
     13.97441     -9.98688     -7.41913         0.003104     -0.004114     -0.002375
     13.97873    -18.61574    -12.40100        -0.001091     -0.000110     -0.000063
     13.98508    -12.89098     -2.47568         0.000390     -0.000546      0.000151
     14.00207    -15.75374     -7.43976         0.000295      0.000163      0.000334
     16.34519    -10.01417    -14.03672        -0.000281     -0.000202      0.000743
     16.35818     -4.29907     -4.13527        -0.000649     -0.000834     -0.000481
     16.33249     -7.14832     -9.10623         0.000621     -0.000466     -0.000046
     16.33702    -15.75582    -14.05704         0.000174     -0.000095     -0.000074
     16.33249    -10.02867     -4.11732         0.000621     -0.000273     -0.000381
     16.53131    -12.86285     -9.07957        -0.001381     -0.000254     -0.000146
     16.32348    -21.47348    -14.05092        -0.001421     -0.000525     -0.000303
     16.34519    -15.73153     -4.13397        -0.000281      0.000543     -0.000547
     16.33702    -18.61995     -9.09622         0.000174     -0.000112     -0.000046
     15.04556    -11.45372     -8.26601        -0.004479      0.000000      0.000000
    total drift:                                0.059852      0.000139     -0.000006

  FREE ENERGIE OF THE ION-ELECTRON SYSTEM (eV)
  free  energy   TOTEN  =      -927.73110228 eV

  energy  without entropy=     -927.66076021  energy(sigma->0) =     -927.69593124

 d Force = 0.2139253E-05[ 0.478E-06, 0.380E-05]  d Energy = 0.1564673E-05 0.575E-06
 d Force =-0.5891740E-01[-0.589E-01,-0.589E-01]  d Ewald  =-0.5891767E-01 0.269E-06

 reached required accuracy - stopping structural energy minimisation