 vasp.5.4.4.18Apr17-6-g9f103f2a35 (build May 02 2017 15:33:50) complex

 executed on Intel-16.0.3.210-OMP date 2018.08.08  20:37:13

 INCAR:
 POTCAR:    PAW Al_GW 19Mar2012
 POTCAR:    PAW_PBE N 08Apr2002

 POTCAR:    PAW Al_GW 19Mar2012
   VRHFIN =Al: s2p1

   TITEL  = PAW Al_GW 19Mar2012
   POMASS =   26.982; ZVAL   =    3.000    mass and valenz
   ENMAX  =  240.300; ENMIN  =  180.225 eV

 POTCAR:    PAW_PBE N 08Apr2002
   VRHFIN =N: s2p3

   TITEL  = PAW_PBE N 08Apr2002
   POMASS =   14.001; ZVAL   =    5.000    mass and valenz
   ENMAX  =  400.000; ENMIN  =  300.000 eV

 Optimization of the real space projectors (new method)

 maximal supplied QI-value         = 18.90
 optimisation between [QCUT,QGAM] = [  8.69, 17.57] = [ 21.16, 86.49] Ry
 Optimized for a Real-space Cutoff    1.59 Angstroem

   l    n(q)    QCUT    max X(q) W(low)/X(q) W(high)/X(q)  e(spline)
   0      8     8.693    11.519    0.12E-03    0.31E-04    0.21E-06
   0      8     8.693     5.834    0.89E-04    0.32E-04    0.16E-06
   1      8     8.693    10.132    0.25E-03    0.39E-03    0.25E-06
   1      8     8.693     3.004    0.16E-03    0.27E-03    0.22E-06
   2      7     8.693     3.169    0.39E-03    0.93E-03    0.44E-06
   2      7     8.693     1.605    0.70E-04    0.91E-04    0.19E-06
 Optimization of the real space projectors (new method)

 maximal supplied QI-value         = 25.13
 optimisation between [QCUT,QGAM] = [  8.80, 17.59] = [ 21.67, 86.68] Ry
 Optimized for a Real-space Cutoff    2.14 Angstroem

   l    n(q)    QCUT    max X(q) W(low)/X(q) W(high)/X(q)  e(spline)
   0     11     8.797    79.467    0.70E-04    0.19E-04    0.19E-05
   0     11     8.797    66.151    0.68E-04    0.18E-04    0.19E-05
   1     11     8.797     6.738    0.26E-03    0.11E-02    0.73E-05
   1     11     8.797     5.013    0.25E-03    0.11E-02    0.72E-05
  PAW Al_GW 19Mar2012                   :
  PAW_PBE N 08Apr2002                   :

 POSCAR: New structure
  positions in cartesian coordinates
 exchange correlation table for  LEXCH =        8
   RHO(1)=    0.500       N(1)  =     2000
   RHO(2)=  100.500       N(2)  =     4000

 ion  position               nearest neighbor table
   1  0.444  0.444  0.079-
   2  0.444  0.778  0.079-
   3  0.444  0.111  0.079-
   4  0.778  0.444  0.079-
   5  0.778  0.778  0.079-
   6  0.778  0.111  0.079-
   7  0.111  0.444  0.079-
   8  0.111  0.778  0.079-
   9  0.111  0.111  0.079-
  10  0.556  0.556  0.157-
  11  0.556  0.889  0.157-
  12  0.556  0.222  0.157-
  13  0.889  0.556  0.157-
  14  0.889  0.889  0.157-
  15  0.889  0.222  0.157-
  16  0.222  0.556  0.157-
  17  0.222  0.889  0.157-
  18  0.222  0.222  0.157-
  19  0.667  0.667  0.234-
  20  0.667  0.000  0.234-
  21  0.667  0.333  0.234-
  22  0.000  0.667  0.234-
  23  0.000  0.000  0.234-
  24  0.000  0.333  0.234-
  25  0.333  0.667  0.234-
  26  0.333  0.000  0.234-
  27  0.333  0.333  0.234-
  28  0.778  0.778  0.312-
  29  0.778  0.111  0.312-
  30  0.778  0.444  0.312-
  31  0.111  0.778  0.312-
  32  0.111  0.111  0.312-
  33  0.111  0.444  0.312-
  34  0.444  0.778  0.312-
  35  0.444  0.111  0.312-
  36  0.444  0.444  0.312-
  37  0.889  0.889  0.390-
  38  0.889  0.222  0.390-
  39  0.889  0.556  0.390-
  40  0.222  0.889  0.390-
  41  0.222  0.222  0.390-
  42  0.222  0.556  0.390-
  43  0.556  0.889  0.390-
  44  0.556  0.222  0.390-
  45  0.556  0.556  0.390-
  46  0.000  0.000  0.466-
  47  0.000  0.333  0.466-
  48  0.000  0.667  0.466-
  49  0.333  0.000  0.466-
  50  0.333  0.333  0.466-
  51  0.333  0.667  0.466-
  52  0.667  0.000  0.466-
  53  0.667  0.333  0.466-
  54  0.667  0.667  0.466-
  55  0.111  0.111  0.545-
  56  0.111  0.444  0.545-
  57  0.111  0.778  0.545-
  58  0.444  0.111  0.545-
  59  0.444  0.444  0.545- 253 1.95 254 1.95
  60  0.444  0.778  0.545-
  61  0.778  0.111  0.545-
  62  0.778  0.444  0.545-
  63  0.778  0.778  0.545-
  64  0.278  0.278  0.079-
  65  0.278  0.611  0.079-
  66  0.278  0.944  0.079-
  67  0.611  0.278  0.079-
  68  0.611  0.611  0.079-
  69  0.611  0.944  0.079-
  70  0.944  0.278  0.079-
  71  0.944  0.611  0.079-
  72  0.944  0.944  0.079-
  73  0.389  0.389  0.157-
  74  0.389  0.722  0.157-
  75  0.389  0.056  0.157-
  76  0.722  0.389  0.157-
  77  0.722  0.722  0.157-
  78  0.722  0.056  0.157-
  79  0.056  0.389  0.157-
  80  0.056  0.722  0.157-
  81  0.056  0.056  0.157-
  82  0.500  0.500  0.234-
  83  0.500  0.833  0.234-
  84  0.500  0.167  0.234-
  85  0.833  0.500  0.234-
  86  0.833  0.833  0.234-
  87  0.833  0.167  0.234-
  88  0.167  0.500  0.234-
  89  0.167  0.833  0.234-
  90  0.167  0.167  0.234-
  91  0.611  0.611  0.312-
  92  0.611  0.944  0.312-
  93  0.611  0.278  0.312-
  94  0.944  0.611  0.312-
  95  0.944  0.944  0.312-
  96  0.944  0.278  0.312-
  97  0.278  0.611  0.312-
  98  0.278  0.944  0.312-
  99  0.278  0.278  0.312-
 100  0.722  0.722  0.390-
 101  0.722  0.056  0.390-
 102  0.722  0.389  0.390-
 103  0.056  0.722  0.390-
 104  0.056  0.056  0.390-
 105  0.056  0.389  0.390-
 106  0.389  0.722  0.390-
 107  0.389  0.056  0.390-
 108  0.389  0.389  0.390-
 109  0.833  0.833  0.466-
 110  0.833  0.167  0.466-
 111  0.833  0.500  0.466-
 112  0.167  0.833  0.466-
 113  0.167  0.167  0.466-
 114  0.167  0.500  0.466-
 115  0.500  0.833  0.466-
 116  0.500  0.167  0.466-
 117  0.500  0.500  0.466-
 118  0.944  0.944  0.545-
 119  0.944  0.278  0.545-
[...]
 170  0.389  0.222  0.390-
 171  0.389  0.556  0.390-
 172  0.833  0.000  0.466-
 173  0.833  0.333  0.466-
 174  0.833  0.667  0.466-
 175  0.167  0.000  0.466-
 176  0.167  0.333  0.466-
 177  0.167  0.667  0.466-
 178  0.500  0.000  0.466-
 179  0.500  0.333  0.466-
 180  0.500  0.667  0.466-
 181  0.944  0.111  0.545-
 182  0.944  0.444  0.545-
 183  0.944  0.778  0.545-
 184  0.278  0.111  0.545-
 185  0.278  0.444  0.545- 253 1.95 254 1.95
 186  0.278  0.778  0.545-
 187  0.611  0.111  0.545-
 188  0.611  0.444  0.545-
 189  0.611  0.778  0.545-
 190  0.444  0.278  0.079-
 191  0.444  0.611  0.079-
 192  0.444  0.944  0.079-
 193  0.778  0.278  0.079-
 194  0.778  0.611  0.079-
 195  0.778  0.944  0.079-
 196  0.111  0.278  0.079-
 197  0.111  0.611  0.079-
 198  0.111  0.944  0.079-
 199  0.556  0.389  0.157-
 200  0.556  0.722  0.157-
 201  0.556  0.056  0.157-
 202  0.889  0.389  0.157-
 203  0.889  0.722  0.157-
 204  0.889  0.056  0.157-
 205  0.222  0.389  0.157-
 206  0.222  0.722  0.157-
 207  0.222  0.056  0.157-
 208  0.667  0.500  0.234-
 209  0.667  0.833  0.234-
 210  0.667  0.167  0.234-
 211  1.000  0.500  0.234-
 212  1.000  0.833  0.234-
 213  1.000  0.167  0.234-
 214  0.333  0.500  0.234-
 215  0.333  0.833  0.234-
 216  0.333  0.167  0.234-
 217  0.778  0.611  0.312-
 218  0.778  0.944  0.312-
 219  0.778  0.278  0.312-
 220  0.111  0.611  0.312-
 221  0.111  0.944  0.312-
 222  0.111  0.278  0.312-
 223  0.444  0.611  0.312-
 224  0.444  0.944  0.312-
 225  0.444  0.278  0.312-
 226  0.889  0.722  0.390-
 227  0.889  0.056  0.390-
 228  0.889  0.389  0.390-
 229  0.222  0.722  0.390-
 230  0.222  0.056  0.390-
 231  0.222  0.389  0.390-
 232  0.556  0.722  0.390-
 233  0.556  0.056  0.390-
 234  0.556  0.389  0.390-
 235  1.000  0.833  0.466-
 236  1.000  0.167  0.466-
 237  1.000  0.500  0.466-
 238  0.333  0.833  0.466-
 239  0.333  0.167  0.466-
 240  0.333  0.500  0.466-
 241  0.667  0.833  0.466-
 242  0.667  0.167  0.466-
 243  0.667  0.500  0.466-
 244  0.111  0.944  0.545-
 245  0.111  0.278  0.545-
 246  0.111  0.611  0.545-
 247  0.444  0.944  0.545-
 248  0.444  0.278  0.545-
 249  0.444  0.611  0.545-
 250  0.778  0.944  0.545-
 251  0.778  0.278  0.545-
 252  0.778  0.611  0.545-
 253  0.343  0.481  0.585- 254 1.10 185 1.95  59 1.95
 254  0.380  0.407  0.585- 253 1.10 185 1.95  59 1.95

  LATTYP: Found a hexagonal cell.
 ALAT       =    17.1805734625
 C/A-ratio  =     1.7461582447

  Lattice vectors:

 A1 = (   0.0000000000,  -8.5902867312,  14.8788130701)
 A2 = (   0.0000000000,  17.1805734625,   0.0000000000)
 A3 = ( -30.0000000000,   0.0000000000,   0.0000000000)

Analysis of symmetry for initial positions (statically):
 Subroutine PRICEL returns:
 Original cell was already a primitive cell.

 Routine SETGRP: Setting up the symmetry group for a
 hexagonal supercell.

 Subroutine GETGRP returns: Found  2 space group operations
 (whereof  1 operations were pure point group operations)
 out of a pool of 24 trial point group operations.

The static configuration has the point symmetry C_1 .
 The point group associated with its full space group is C_1h.

Analysis of symmetry for dynamics (positions and initial velocities):
 Subroutine PRICEL returns:
 Original cell was already a primitive cell.

 Routine SETGRP: Setting up the symmetry group for a
 hexagonal supercell.

 Subroutine GETGRP returns: Found  2 space group operations
 (whereof  1 operations were pure point group operations)
 out of a pool of 24 trial point group operations.

The dynamic configuration has the point symmetry C_1 .
 The point group associated with its full space group is C_1h.

 Subroutine INISYM returns: Found  2 space group operations
 (whereof  1 operations are pure point group operations),
 and found     1 'primitive' translations

 KPOINTS: Automatic generation

Automatic generation of k-mesh.
Space group operators:
 irot       det(A)        alpha          n_x          n_y          n_z        tau_x        tau_y        tau_z
    1     1.000000     0.000000     1.000000     0.000000     0.000000     0.000000     0.000000     0.000000
    2    -1.000000   180.000000     0.000000     1.000000     0.000000    -0.833333     0.000000     0.000000

 Subroutine IBZKPT returns following result:

 Found      3 irreducible k-points:

 Following reciprocal coordinates:
            Coordinates               Weight
  0.000000  0.000000  0.000000      1.000000
  0.500000  0.000000  0.000000      2.000000
  0.000000  0.500000  0.000000      1.000000

 Following cartesian coordinates:
            Coordinates               Weight
  0.000000  0.000000  0.000000      1.000000
  0.000000 -0.029103  0.016802      2.000000
  0.000000  0.000000 -0.033605      1.000000

 SYSTEM =  NiAl
 POSCAR =  New structure

 Startparameter for this run:
   NWRITE =      2    write-flag & timer
   PREC   = normal    normal or accurate (medium, high low for compatibility)
   ISTART =      0    job   : 0-new  1-cont  2-samecut
   ICHARG =      2    charge: 1-file 2-atom 10-const
   ISPIN  =      1    spin polarized calculation?
   LNONCOLLINEAR =      F non collinear calculations
   LSORBIT =      F    spin-orbit coupling
   INIWAV =      1    electr: 0-lowe 1-rand  2-diag
   LASPH  =      F    aspherical Exc in radial PAW
   METAGGA=      F    non-selfconsistent MetaGGA calc.

 Electronic Relaxation 1
   ENCUT  =  300.0 eV  22.05 Ry    4.70 a.u.  24.26 24.26 42.37*2*pi/ulx,y,z
   ENINI  =  300.0     initial cutoff
   ENAUG  =  627.1 eV  augmentation charge cutoff
   NELM   =     60;   NELMIN=  6; NELMDL= -5     # of ELM steps
   EDIFF  = 0.5E-05   stopping-criterion for ELM
   LREAL  =      T    real-space projection
   NLSPLINE    = F    spline interpolate recip. space projectors
[...]
    30.000000000  0.000000000  0.000000000     0.033333333  0.000000000  0.000000000

  length of vectors
    17.180573462 17.180573462 30.000000000     0.067209662  0.067209662  0.033333333

 FORCES acting on ions
    electron-ion (+dipol)            ewald-force                    non-local-force                 convergence-correction
   0.314E+03 0.650E-01 0.119E-01   -.313E+03 -.660E-01 0.257E-03   -.871E+00 -.312E-01 -.107E-01   -.900E-05 0.459E-05 -.293E-05
   0.314E+03 0.612E-01 0.711E-01   -.313E+03 -.645E-01 -.635E-01   -.826E+00 0.798E-02 0.365E-02   -.552E-05 -.116E-05 0.213E-05
   0.314E+03 -.208E-01 -.109E+00   -.313E+03 0.328E-01 0.120E+00   -.853E+00 -.446E-02 -.848E-02   -.674E-05 -.431E-05 0.631E-06
   0.314E+03 0.777E-01 -.203E-01   -.313E+03 -.646E-01 0.275E-03   -.837E+00 -.549E-02 0.180E-01   -.940E-05 0.370E-05 -.700E-05
   0.314E+03 -.573E-01 0.197E-01   -.313E+03 0.316E-01 -.731E-02   -.865E+00 -.540E-02 -.108E-01   -.302E-05 0.678E-06 -.249E-05
   0.314E+03 0.553E-01 -.630E-01   -.313E+03 -.645E-01 0.635E-01   -.815E+00 -.467E-03 -.998E-02   -.890E-05 0.843E-05 0.285E-05
   0.314E+03 -.147E+00 0.175E-01   -.313E+03 0.131E+00 0.313E-03   -.856E+00 0.270E-01 -.120E-01   -.916E-05 -.696E-05 -.526E-05
   0.314E+03 -.472E-01 0.119E+00   -.313E+03 0.328E-01 -.120E+00   -.860E+00 0.206E-01 -.111E-01   -.830E-05 -.667E-07 0.731E-05
   0.314E+03 -.628E-01 0.244E-01   -.313E+03 0.317E-01 0.732E-02   -.813E+00 0.248E-01 -.307E-01   -.106E-04 -.366E-05 0.421E-05
   0.212E+03 0.180E+00 0.971E-01   -.212E+03 -.178E+00 -.683E-01   -.176E+00 -.857E-03 -.241E-01   -.237E-04 0.377E-05 -.709E-05
   0.212E+03 0.254E-01 -.325E-01   -.212E+03 -.149E-01 0.540E-01   -.179E+00 -.255E-02 -.125E-01   -.194E-04 -.399E-05 0.304E-05
   0.212E+03 0.736E-01 -.148E+00   -.212E+03 -.731E-01 0.167E+00   -.223E+00 -.211E-02 -.908E-02   -.283E-04 0.475E-05 0.166E-05
   0.212E+03 -.663E-01 0.643E-01   -.212E+03 0.866E-01 -.343E-01   -.155E+00 -.144E-01 -.283E-01   -.202E-04 -.529E-07 -.118E-04
   0.212E+03 -.398E-01 0.295E-01   -.212E+03 0.317E-01 -.361E-01   -.157E+00 0.641E-02 0.545E-02   -.220E-04 0.600E-05 0.629E-05
   0.212E+03 0.571E-01 -.413E-01   -.212E+03 -.700E-01 0.420E-01   -.153E+00 0.491E-02 -.359E-02   -.265E-04 0.396E-05 -.557E-06
   0.212E+03 -.693E-01 0.972E-01   -.212E+03 0.910E-01 -.103E+00   -.193E+00 0.925E-03 -.491E-02   -.258E-04 -.229E-05 -.193E-05
   0.212E+03 0.161E-01 0.135E+00   -.212E+03 -.167E-01 -.127E+00   -.152E+00 -.875E-03 -.635E-02   -.227E-04 -.318E-05 0.913E-05
   0.212E+03 -.127E+00 -.995E-01   -.212E+03 0.143E+00 0.104E+00   -.132E+00 -.110E-01 -.420E-02   -.275E-04 -.800E-05 0.711E-06
   0.107E+03 0.151E+00 0.101E+00   -.107E+03 -.157E+00 -.938E-01   0.179E+00 0.394E-02 -.973E-02   -.612E-05 -.999E-06 -.875E-05
   0.107E+03 0.658E-01 -.281E+00   -.107E+03 -.402E-01 0.288E+00   0.163E+00 -.146E-01 -.157E-01   -.133E-04 0.484E-05 0.117E-04
   0.107E+03 0.426E+00 -.153E+00   -.108E+03 -.416E+00 0.160E+00   0.185E+00 0.618E-02 -.169E-01   -.132E-04 0.698E-05 -.676E-05
   0.107E+03 -.310E+00 0.231E+00   -.107E+03 0.331E+00 -.242E+00   0.184E+00 -.289E-01 0.146E-01   -.548E-05 0.241E-05 -.409E-05
   0.107E+03 0.339E-01 0.918E-01   -.107E+03 -.314E-01 -.121E+00   0.155E+00 0.376E-02 0.214E-01   -.135E-04 0.353E-05 0.130E-04
   0.107E+03 -.175E+00 -.562E-01   -.107E+03 0.197E+00 0.759E-01   0.147E+00 -.156E-01 -.199E-01   -.140E-04 -.223E-05 -.910E-05
   0.108E+03 0.118E+00 0.384E+00   -.108E+03 -.174E+00 -.399E+00   0.198E+00 0.383E-01 0.210E-01   -.605E-05 0.206E-06 0.530E-06
   0.107E+03 -.799E-01 -.754E-01   -.107E+03 0.717E-01 0.823E-01   0.167E+00 0.428E-02 -.128E-01   -.123E-04 -.793E-05 0.126E-04
   0.108E+03 -.177E+00 -.236E+00   -.108E+03 0.220E+00 0.250E+00   0.214E+00 -.215E-01 -.481E-02   -.137E-04 -.352E-05 -.396E-05
   0.402E+01 -.259E+00 0.473E-01   -.402E+01 0.235E+00 -.593E-01   -.121E-01 0.185E-01 -.462E-03   0.215E-05 0.473E-06 0.285E-05
   0.447E+01 0.499E+00 -.559E+00   -.446E+01 -.527E+00 0.534E+00   -.110E-01 0.217E-01 0.317E-01   0.427E-06 0.108E-04 0.863E-05
   0.428E+01 0.490E+00 -.108E-01   -.430E+01 -.529E+00 0.192E-03   0.346E-02 0.394E-01 0.180E-01   0.403E-05 0.278E-05 -.211E-04
   0.497E+01 -.289E+00 0.105E+01   -.499E+01 0.295E+00 -.105E+01   0.422E-01 -.794E-02 0.174E-01   0.681E-05 0.178E-05 0.120E-04
   0.404E+01 -.255E+00 -.743E-01   -.402E+01 0.236E+00 0.596E-01   -.183E-01 0.817E-02 0.208E-01   -.474E-05 -.586E-05 0.937E-05
   0.538E+01 -.122E+01 -.232E-01   -.539E+01 0.120E+01 0.506E-04   0.126E-01 -.305E-02 0.286E-01   0.584E-05 -.532E-05 -.163E-04
   0.447E+01 0.527E+00 0.551E+00   -.446E+01 -.527E+00 -.534E+00   -.127E-01 0.386E-02 -.214E-01   0.582E-05 -.362E-05 0.750E-05
   0.496E+01 -.324E+00 -.108E+01   -.499E+01 0.295E+00 0.105E+01   0.363E-01 0.144E-01 0.961E-02   0.182E-05 -.535E-05 0.764E-05
   0.676E+01 0.682E+00 0.473E-02   -.678E+01 -.688E+00 -.247E-03   -.735E-02 0.350E-02 -.243E-02   0.224E-05 0.127E-06 -.115E-04
   -.992E+02 -.369E+00 0.476E+00   0.994E+02 0.407E+00 -.490E+00   -.151E+00 -.443E-01 0.376E-02   0.590E-05 0.532E-05 0.163E-04
   -.994E+02 0.865E+00 -.495E+00   0.995E+02 -.874E+00 0.501E+00   -.148E+00 0.242E-01 -.108E-01   0.791E-05 0.667E-05 -.609E-05
   -.991E+02 -.117E+01 0.377E+00   0.993E+02 0.115E+01 -.404E+00   -.132E+00 -.976E-02 0.260E-01   0.619E-05 -.125E-05 -.177E-04
   -.988E+02 0.267E+00 0.171E+01   0.990E+02 -.276E+00 -.172E+01   -.147E+00 0.165E-01 0.751E-02   0.495E-05 -.506E-05 0.203E-04
   -.978E+02 -.218E+01 -.159E+01   0.979E+02 0.218E+01 0.161E+01   -.105E+00 -.208E-01 -.211E-01   0.775E-06 -.711E-05 -.524E-06
   -.929E+02 -.205E+01 0.228E+01   0.930E+02 0.202E+01 -.227E+01   -.153E+00 0.233E-01 0.503E-03   -.146E-05 0.135E-05 -.134E-04
   -.995E+02 0.999E-01 -.684E+00   0.996E+02 -.138E+00 0.657E+00   -.135E+00 0.332E-01 0.909E-02   0.544E-05 -.897E-06 0.114E-04
   -.951E+02 0.137E+01 -.320E+01   0.954E+02 -.141E+01 0.317E+01   -.280E+00 -.165E-02 0.391E-01   -.222E-05 0.250E-05 0.315E-05
   -.968E+02 0.297E+01 0.111E+01   0.969E+02 -.297E+01 -.113E+01   -.893E-01 0.357E-01 0.304E-01   -.763E-06 -.262E-05 -.149E-04
   -.206E+03 0.210E+00 0.123E+01   0.206E+03 -.226E+00 -.125E+01   0.157E+00 0.118E-01 0.706E-02   0.295E-04 0.589E-05 0.160E-04
   -.206E+03 -.228E+01 -.720E+00   0.206E+03 0.230E+01 0.765E+00   0.195E+00 -.250E-01 -.384E-01   0.300E-04 0.219E-05 -.149E-04
   -.204E+03 -.504E+01 0.373E+01   0.203E+03 0.502E+01 -.369E+01   0.167E+00 0.474E-01 -.583E-01   0.243E-04 0.378E-05 -.543E-05
   -.206E+03 -.761E+00 -.969E+00   0.206E+03 0.806E+00 0.993E+00   0.164E+00 -.337E-01 -.221E-01   0.269E-04 -.547E-05 0.175E-04
   -.189E+03 -.790E+01 -.854E+01   0.188E+03 0.790E+01 0.861E+01   0.519E+00 -.391E-01 -.917E-01   0.269E-04 -.156E-05 -.473E-05
   -.197E+03 0.439E+01 0.950E+01   0.197E+03 -.426E+01 -.946E+01   0.586E-01 -.121E+00 -.550E-01   0.270E-04 -.173E-05 -.766E-06
   -.205E+03 0.595E+00 -.351E+01   0.205E+03 -.616E+00 0.356E+01   0.142E+00 0.126E-01 -.166E-01   0.258E-04 0.229E-05 0.171E-04
   -.202E+03 0.750E+01 -.275E+01   0.201E+03 -.753E+01 0.282E+01   0.286E+00 0.912E-01 -.800E-01   0.292E-04 0.408E-05 -.108E-04
   -.206E+03 0.171E+01 0.944E+00   0.206E+03 -.169E+01 -.943E+00   0.152E+00 -.954E-02 -.501E-02   0.250E-04 -.255E-05 -.703E-05
   -.312E+03 -.138E+01 -.384E+00   0.312E+03 0.137E+01 0.404E+00   0.826E+00 -.185E-01 -.282E-01   0.199E-04 -.892E-06 0.674E-05
   -.308E+03 -.182E+02 0.156E-01   0.307E+03 0.184E+02 -.502E-02   0.925E+00 -.202E+00 -.137E-01   0.152E-04 0.477E-06 -.135E-04
   -.310E+03 -.357E+01 0.121E+02   0.309E+03 0.361E+01 -.123E+02   0.908E+00 -.222E-01 0.168E+00   0.132E-04 0.223E-05 0.935E-05
   -.310E+03 -.366E+01 -.122E+02   0.309E+03 0.362E+01 0.123E+02   0.893E+00 0.360E-01 -.100E+00   0.162E-04 -.164E-05 0.872E-05
   -.246E+03 0.810E+02 0.859E-01   0.243E+03 -.833E+02 -.577E-01   0.138E+01 -.315E+00 -.773E-01   0.149E-05 -.123E-04 -.166E-04
   -.312E+03 0.424E+01 0.445E+01   0.311E+03 -.422E+01 -.445E+01   0.865E+00 -.418E-02 -.411E-02   0.785E-05 -.329E-05 0.493E-05
[...]
   -.207E+03 -.918E-05 -.708E+00   0.206E+03 0.474E-04 0.707E+00   0.191E+00 -.107E-17 0.159E-01   0.271E-04 0.248E-07 0.101E-04
   -.203E+03 0.409E+01 -.578E+01   0.202E+03 -.413E+01 0.575E+01   0.200E+00 0.260E-01 0.287E-01   0.290E-04 0.554E-05 0.498E-05
   -.204E+03 0.523E+01 0.805E+00   0.204E+03 -.526E+01 -.794E+00   0.151E+00 -.837E-02 -.297E-01   0.249E-04 -.244E-05 -.185E-04
   -.312E+03 0.925E-04 0.409E+01   0.311E+03 -.814E-04 -.405E+01   0.853E+00 -.186E-17 -.335E-01   0.168E-04 0.400E-07 0.104E-04
   -.311E+03 -.674E+01 -.294E+01   0.311E+03 0.677E+01 0.293E+01   0.855E+00 -.217E-01 0.127E-01   0.191E-04 -.225E-05 -.422E-05
   -.305E+03 -.190E+02 0.155E+02   0.304E+03 0.189E+02 -.154E+02   0.784E+00 0.171E+00 -.105E+00   0.123E-04 0.669E-06 -.911E-05
   -.312E+03 -.318E+00 -.200E+01   0.311E+03 0.294E+00 0.198E+01   0.858E+00 0.161E-01 0.108E-01   0.952E-05 -.437E-05 0.134E-04
   -.286E+03 -.863E-05 -.518E+02   0.283E+03 0.120E-03 0.533E+02   0.248E+01 0.641E-17 -.154E+01   0.951E-05 -.861E-07 0.964E-05
   -.305E+03 0.190E+02 0.155E+02   0.304E+03 -.189E+02 -.154E+02   0.784E+00 -.171E+00 -.105E+00   0.122E-04 -.749E-06 -.903E-05
   -.312E+03 0.318E+00 -.200E+01   0.311E+03 -.294E+00 0.199E+01   0.858E+00 -.161E-01 0.108E-01   0.950E-05 0.433E-05 0.133E-04
   -.311E+03 0.674E+01 -.294E+01   0.311E+03 -.677E+01 0.293E+01   0.855E+00 0.217E-01 0.127E-01   0.190E-04 0.234E-05 -.425E-05
   -.312E+03 -.117E-03 0.965E+00   0.312E+03 0.205E-04 -.962E+00   0.830E+00 0.276E-17 -.238E-02   0.312E-05 0.822E-07 -.115E-04
   -.573E+03 -.126E-03 0.246E+03   0.586E+03 0.771E-03 -.303E+03   -.113E+02 -.124E-14 0.344E+02   -.607E-04 -.123E-06 -.182E-03
   -.573E+03 0.337E-02 -.247E+03   0.586E+03 -.896E-03 0.303E+03   -.116E+02 0.981E-15 -.339E+02   -.498E-04 -.141E-06 0.115E-04
   0.177E+02 -.171E-03 0.475E+00   0.171E-11 0.253E-13 -.568E-13   -.175E+02 -.343E-15 -.481E+00   -.382E-04 -.264E-06 -.172E-03

 POSITION                                       TOTAL-FORCE (eV/Angst)
      2.36204    -11.45372     -6.61281         0.018792     -0.032273      0.001490
      2.36204    -14.31714    -11.57241         0.006862      0.004797      0.011281
      2.36204     -8.59029     -1.65320         0.007338      0.007362      0.002550
      2.36204    -17.18057     -6.61281         0.006375      0.007730     -0.001973
      2.36204    -20.04400    -11.57241         0.000560     -0.031085      0.001496
      2.36204    -14.31714     -1.65320        -0.007700     -0.009532     -0.009481
      2.36204     -5.72686     -6.61281        -0.000097      0.010841      0.005765
      2.36204     -8.59029    -11.57241         0.001515      0.006114     -0.011813
      2.36204     -2.86343     -1.65320        -0.004096     -0.006327      0.000975
      4.71078    -14.31714     -8.26601        -0.001440      0.001640      0.004738
      4.71078    -17.18057    -13.22561        -0.013510      0.007961      0.009129
      4.71078    -11.45372     -3.30640         0.002068     -0.001720      0.010384
      4.71078    -20.04400     -8.26601        -0.018679      0.006076      0.001691
      4.71078    -22.90743    -13.22561        -0.006517     -0.001561     -0.001173
      4.71078    -17.18057     -3.30640        -0.006997     -0.008019     -0.002838
      4.71078     -8.59029     -8.26601         0.016911      0.022473     -0.010863
      4.71078    -11.45372    -13.22561        -0.026080     -0.001626      0.001693
      4.71078     -5.72686     -3.30640        -0.016148      0.005432      0.000465
      7.01272    -17.18057     -9.91921         0.030980     -0.002039     -0.002275
      7.01272    -11.45372      0.00000         0.027173      0.010894     -0.009243
      7.01272    -14.31714     -4.95960         0.011093      0.015931     -0.010524
      7.01272     -5.72686     -9.91921         0.005053     -0.007507      0.003922
      7.01272      0.00000      0.00000         0.014209      0.006225     -0.007408
      7.01272     -2.86343     -4.95960         0.017185      0.006439     -0.000207
      7.01272    -11.45372     -9.91921        -0.005361     -0.017798      0.006384
      7.01272     -5.72686      0.00000         0.016728     -0.003745     -0.005768
      7.01272     -8.59029     -4.95960         0.003700      0.021379      0.008902
      9.35192    -20.04400    -11.57241        -0.009724     -0.005126     -0.012499
      9.35192    -14.31714     -1.65320        -0.000322     -0.005920      0.006817
      9.35192    -17.18057     -6.61281        -0.015632      0.000223      0.007356
      9.35192     -8.59029    -11.57241         0.019076     -0.002258      0.017143
      9.35192     -2.86343     -1.65320         0.009732     -0.010911      0.006096
      9.35192     -5.72686     -6.61281        -0.000727     -0.027625      0.005510
      9.35192    -14.31714    -11.57241         0.000049      0.004539     -0.004110
      9.35192     -8.59029     -1.65320         0.005814     -0.014554     -0.019086
      9.35192    -11.45372     -6.61281        -0.020221     -0.002361      0.002081
     11.69112    -22.90743    -13.22561        -0.007182     -0.005670     -0.010328
     11.69112    -17.18057     -3.30640        -0.010818      0.014985     -0.004775
     11.69112    -20.04400     -8.26601         0.030832     -0.028131     -0.001308
     11.69112    -11.45372    -13.22561        -0.022184      0.006790     -0.006496
     11.69112     -5.72686     -3.30640        -0.013486     -0.020750     -0.006888
     11.69112     -8.59029     -8.26601        -0.044913     -0.004127      0.012672
     11.69112    -17.18057    -13.22561        -0.008517     -0.004867     -0.017993
     11.69112    -11.45372     -3.30640        -0.034112     -0.039124      0.009331
     11.69112    -14.31714     -8.26601         0.017519      0.035167      0.008029
     13.99306      0.00000      0.00000        -0.001076     -0.004390     -0.006685
     13.99306     -2.86343     -4.95960         0.022855     -0.005367      0.006193
     13.99306     -5.72686     -9.91921        -0.003888      0.028099     -0.023025
     13.99306     -5.72686      0.00000         0.004839      0.011209      0.002227
     13.99306     -8.59029     -4.95960         0.009677     -0.038198     -0.018531
     13.99306    -11.45372     -9.91921        -0.045372      0.013010     -0.013535
     13.99306    -11.45372      0.00000        -0.005846     -0.007956      0.037216
     13.99306    -14.31714     -4.95960         0.033669      0.053521     -0.012504
     13.99306    -17.18057     -9.91921        -0.019336      0.014412     -0.004246
     16.34180     -2.86343     -1.65320        -0.016777     -0.021776     -0.007874
     16.34180     -5.72686     -6.61281         0.045205     -0.063631     -0.003199
     16.34180     -8.59029    -11.57241         0.038382      0.015704     -0.004242
     16.34180     -8.59029     -1.65320         0.027053     -0.004202     -0.003298
     16.34180    -11.45372     -6.61281        -1.781532     -2.572251     -0.048934
     16.34180    -14.31714    -11.57241         0.001087      0.014679      0.000257
[...]
     13.99306    -10.02200     -7.43941         0.260531      0.000000      0.056647
     13.99306    -18.61229    -12.39901        -0.022087      0.000000      0.014492
     13.99306    -12.88543     -2.47980         0.002945     -0.013773     -0.000567
     13.99306    -15.74886     -7.43941         0.001920     -0.041132     -0.018774
     16.34180    -10.02200    -14.05221         0.004520      0.000000      0.002531
     16.34180     -4.29514     -4.13300         0.008030      0.009636     -0.002448
     16.34180     -7.15857     -9.09261        -0.020939      0.022814     -0.013207
     16.34180    -15.74886    -14.05221         0.004540     -0.008069     -0.005839
     16.34180    -10.02200     -4.13300        -0.056722      0.000000      0.053005
     16.34180    -12.88543     -9.09261        -0.020939     -0.022814     -0.013207
     16.34180    -21.47572    -14.05221         0.004540      0.008069     -0.005839
     16.34180    -15.74886     -4.13300         0.008030     -0.009636     -0.002448
     16.34180    -18.61229     -9.09261         0.003133      0.000000      0.000056
     17.54000    -10.02200     -7.16000         1.962192      0.000000    -22.470242
     17.54000    -10.02200     -6.06300         1.645002     -0.000000     22.565294
    total drift:                                0.201262     -0.000171     -0.006234

  FREE ENERGIE OF THE ION-ELECTRON SYSTEM (eV)
  free  energy   TOTEN  =      -931.63748362 eV

  energy  without entropy=     -931.56722369  energy(sigma->0) =     -931.60235365