 vasp.5.4.4.18Apr17-6-g9f103f2a35 (build May 02 2017 15:33:50) complex

 executed on Intel-16.0.3.210-OMP date 2018.07.06  11:44:46

 INCAR:
 POTCAR:    PAW Al_GW 19Mar2012
 POTCAR:    PAW_PBE N 08Apr2002

 POTCAR:    PAW Al_GW 19Mar2012
   VRHFIN =Al: s2p1

   TITEL  = PAW Al_GW 19Mar2012
   POMASS =   26.982; ZVAL   =    3.000    mass and valenz
   ENMAX  =  240.300; ENMIN  =  180.225 eV

 POTCAR:    PAW_PBE N 08Apr2002
   VRHFIN =N: s2p3

   TITEL  = PAW_PBE N 08Apr2002
   POMASS =   14.001; ZVAL   =    5.000    mass and valenz
   ENMAX  =  400.000; ENMIN  =  300.000 eV

 Optimization of the real space projectors (new method)

 maximal supplied QI-value         = 18.90
 optimisation between [QCUT,QGAM] = [  8.69, 17.57] = [ 21.16, 86.49] Ry
 Optimized for a Real-space Cutoff    1.59 Angstroem

   l    n(q)    QCUT    max X(q) W(low)/X(q) W(high)/X(q)  e(spline)
   0      8     8.693    11.519    0.12E-03    0.31E-04    0.21E-06
   0      8     8.693     5.834    0.89E-04    0.32E-04    0.16E-06
   1      8     8.693    10.132    0.25E-03    0.39E-03    0.25E-06
   1      8     8.693     3.004    0.16E-03    0.27E-03    0.22E-06
   2      7     8.693     3.169    0.39E-03    0.93E-03    0.44E-06
   2      7     8.693     1.605    0.70E-04    0.91E-04    0.19E-06
 Optimization of the real space projectors (new method)

 maximal supplied QI-value         = 25.13
 optimisation between [QCUT,QGAM] = [  8.80, 17.59] = [ 21.67, 86.68] Ry
 Optimized for a Real-space Cutoff    2.14 Angstroem

   l    n(q)    QCUT    max X(q) W(low)/X(q) W(high)/X(q)  e(spline)
   0     11     8.797    79.467    0.70E-04    0.19E-04    0.19E-05
   0     11     8.797    66.151    0.68E-04    0.18E-04    0.19E-05
   1     11     8.797     6.738    0.26E-03    0.11E-02    0.73E-05
   1     11     8.797     5.013    0.25E-03    0.11E-02    0.72E-05
  PAW Al_GW 19Mar2012                   :
  PAW_PBE N 08Apr2002                   :

 POSCAR: New structure
  positions in cartesian coordinates
 exchange correlation table for  LEXCH =        8
   RHO(1)=    0.500       N(1)  =     2000
   RHO(2)=  100.500       N(2)  =     4000

 ion  position               nearest neighbor table
   1  0.000  0.000  0.000- 257 2.02
   2  0.000  0.125  0.125-
   3  0.125  0.000  0.125- 257 2.02
   4  0.125  0.125  0.000- 257 2.02
   5  0.000  0.000  0.250-
   6  0.000  0.125  0.375-
   7  0.125  0.000  0.375-
   8  0.125  0.125  0.250-
   9  0.000  0.000  0.500-
  10  0.000  0.125  0.625-
  11  0.125  0.000  0.625-
  12  0.125  0.125  0.500-
  13  0.000  0.000  0.750-
  14  0.000  0.125  0.875-
  15  0.125  0.000  0.875- 257 2.02
  16  0.125  0.125  0.750-
  17  0.000  0.250  0.000-
  18  0.000  0.375  0.125-
  19  0.125  0.250  0.125-
  20  0.125  0.375  0.000-
  21  0.000  0.250  0.250-
  22  0.000  0.375  0.375-
  23  0.125  0.250  0.375-
  24  0.125  0.375  0.250-
  25  0.000  0.250  0.500-
  26  0.000  0.375  0.625-
  27  0.125  0.250  0.625-
  28  0.125  0.375  0.500-
  29  0.000  0.250  0.750-
  30  0.000  0.375  0.875-
  31  0.125  0.250  0.875-
  32  0.125  0.375  0.750-
  33  0.000  0.500  0.000-
  34  0.000  0.625  0.125-
  35  0.125  0.500  0.125-
  36  0.125  0.625  0.000-
  37  0.000  0.500  0.250-
  38  0.000  0.625  0.375-
  39  0.125  0.500  0.375-
  40  0.125  0.625  0.250-
  41  0.000  0.500  0.500-
  42  0.000  0.625  0.625-
  43  0.125  0.500  0.625-
  44  0.125  0.625  0.500-
  45  0.000  0.500  0.750-
  46  0.000  0.625  0.875-
  47  0.125  0.500  0.875-
  48  0.125  0.625  0.750-
  49  0.000  0.750  0.000-
  50  0.000  0.875  0.125-
  51  0.125  0.750  0.125-
  52  0.125  0.875  0.000- 257 2.02
  53  0.000  0.750  0.250-
  54  0.000  0.875  0.375-
  55  0.125  0.750  0.375-
  56  0.125  0.875  0.250-
  57  0.000  0.750  0.500-
  58  0.000  0.875  0.625-
  59  0.125  0.750  0.625-
  60  0.125  0.875  0.500-
  61  0.000  0.750  0.750-
  62  0.000  0.875  0.875-
  63  0.125  0.750  0.875-
  64  0.125  0.875  0.750-
  65  0.250  0.000  0.000- 257 2.02
  66  0.250  0.125  0.125-
  67  0.375  0.000  0.125-
  68  0.375  0.125  0.000-
  69  0.250  0.000  0.250-
  70  0.250  0.125  0.375-
  71  0.375  0.000  0.375-
  72  0.375  0.125  0.250-
  73  0.250  0.000  0.500-
  74  0.250  0.125  0.625-
  75  0.375  0.000  0.625-
  76  0.375  0.125  0.500-
  77  0.250  0.000  0.750-
  78  0.250  0.125  0.875-
  79  0.375  0.000  0.875-
  80  0.375  0.125  0.750-
  81  0.250  0.250  0.000-
  82  0.250  0.375  0.125-
  83  0.375  0.250  0.125-
  84  0.375  0.375  0.000-
  85  0.250  0.250  0.250-
  86  0.250  0.375  0.375-
  87  0.375  0.250  0.375-
  88  0.375  0.375  0.250-
  89  0.250  0.250  0.500-
  90  0.250  0.375  0.625-
  91  0.375  0.250  0.625-
  92  0.375  0.375  0.500-
  93  0.250  0.250  0.750-
  94  0.250  0.375  0.875-
  95  0.375  0.250  0.875-
  96  0.375  0.375  0.750-
  97  0.250  0.500  0.000-
  98  0.250  0.625  0.125-
  99  0.375  0.500  0.125-
 100  0.375  0.625  0.000-
 101  0.250  0.500  0.250-
 102  0.250  0.625  0.375-
 103  0.375  0.500  0.375-
 104  0.375  0.625  0.250-
 105  0.250  0.500  0.500-
 106  0.250  0.625  0.625-
 107  0.375  0.500  0.625-
 108  0.375  0.625  0.500-
 109  0.250  0.500  0.750-
 110  0.250  0.625  0.875-
 111  0.375  0.500  0.875-
 112  0.375  0.625  0.750-
 113  0.250  0.750  0.000-
 114  0.250  0.875  0.125-
 115  0.375  0.750  0.125-
 116  0.375  0.875  0.000-
 117  0.250  0.750  0.250-
 118  0.250  0.875  0.375-
 119  0.375  0.750  0.375-
 120  0.375  0.875  0.250-
 121  0.250  0.750  0.500-
 122  0.250  0.875  0.625-
 123  0.375  0.750  0.625-
 124  0.375  0.875  0.500-
 125  0.250  0.750  0.750-
[...]
 242  0.750  0.875  0.125-
 243  0.875  0.750  0.125-
 244  0.875  0.875  0.000-
 245  0.750  0.750  0.250-
 246  0.750  0.875  0.375-
 247  0.875  0.750  0.375-
 248  0.875  0.875  0.250-
 249  0.750  0.750  0.500-
 250  0.750  0.875  0.625-
 251  0.875  0.750  0.625-
 252  0.875  0.875  0.500-
 253  0.750  0.750  0.750-
 254  0.750  0.875  0.875-
 255  0.875  0.750  0.875-
 256  0.875  0.875  0.750-
 257  0.125  0.000  0.000-   1 2.02   3 2.02   4 2.02  15 2.02  52 2.02  65 2.02

  LATTYP: Found a simple cubic cell.
 ALAT       =    16.1980000000

  Lattice vectors:

 A1 = (  16.1980000000,   0.0000000000,   0.0000000000)
 A2 = (   0.0000000000,  16.1980000000,   0.0000000000)
 A3 = (   0.0000000000,   0.0000000000,  16.1980000000)

Analysis of symmetry for initial positions (statically):
 Subroutine PRICEL returns:
 Original cell was already a primitive cell.

 Routine SETGRP: Setting up the symmetry group for a
 simple cubic supercell.

 Subroutine GETGRP returns: Found 48 space group operations
 (whereof  8 operations were pure point group operations)
 out of a pool of 48 trial point group operations.

The static configuration has the point symmetry C_4v.
 The point group associated with its full space group is O_h .

Analysis of symmetry for dynamics (positions and initial velocities):
 Subroutine PRICEL returns:
 Original cell was already a primitive cell.

 Routine SETGRP: Setting up the symmetry group for a
 simple cubic supercell.

 Subroutine GETGRP returns: Found 48 space group operations
 (whereof  8 operations were pure point group operations)
 out of a pool of 48 trial point group operations.

The dynamic configuration has the point symmetry C_4v.
 The point group associated with its full space group is O_h .

 Subroutine INISYM returns: Found 48 space group operations
 (whereof  8 operations are pure point group operations),
 and found     1 'primitive' translations

 KPOINTS: Automatic generation

Automatic generation of k-mesh.
Space group operators:
 irot       det(A)        alpha          n_x          n_y          n_z        tau_x        tau_y        tau_z
    1     1.000000     0.000000     1.000000     0.000000     0.000000     0.000000     0.000000     0.000000
    2    -1.000000   180.000000     0.000000     0.707107     0.707107     0.000000     0.000000     0.000000
    3    -1.000000   180.000000     0.000000     0.000000     1.000000     0.000000     0.000000     0.000000
    4     1.000000    90.000000    -1.000000     0.000000     0.000000     0.000000     0.000000     0.000000
    5     1.000000   180.000000     1.000000     0.000000     0.000000     0.000000     0.000000     0.000000
    6     1.000000    90.000000     1.000000     0.000000     0.000000     0.000000     0.000000     0.000000
    7    -1.000000   180.000000     0.000000     1.000000     0.000000     0.000000     0.000000     0.000000
    8    -1.000000   180.000000     0.000000    -0.707107     0.707107     0.000000     0.000000     0.000000
    9    -1.000000     0.000000     1.000000     0.000000     0.000000     0.250000     0.000000     0.000000
   10     1.000000   120.000000    -0.577350    -0.577350    -0.577350     0.125000     0.875000     0.000000
   11    -1.000000   120.000000    -0.577350    -0.577350    -0.577350     0.125000     0.125000     0.000000
   12     1.000000   120.000000     0.577350     0.577350     0.577350     0.125000     0.000000     0.875000
   13    -1.000000   120.000000     0.577350     0.577350     0.577350     0.125000     0.000000     0.125000
   14     1.000000    90.000000     0.000000     0.000000    -1.000000     0.125000     0.875000     0.000000
   15    -1.000000    90.000000     0.000000     0.000000    -1.000000     0.125000     0.125000     0.000000
   16     1.000000   180.000000     0.000000     0.707107     0.707107     0.250000     0.000000     0.000000
   17     1.000000    90.000000     0.000000     1.000000     0.000000     0.125000     0.000000     0.875000
   18    -1.000000    90.000000     0.000000     1.000000     0.000000     0.125000     0.000000     0.125000
   19     1.000000   180.000000     0.000000     0.000000     1.000000     0.250000     0.000000     0.000000
   20     1.000000   120.000000    -0.577350     0.577350     0.577350     0.125000     0.125000     0.000000
   21    -1.000000   120.000000    -0.577350     0.577350     0.577350     0.125000     0.875000     0.000000
   22     1.000000   120.000000    -0.577350     0.577350    -0.577350     0.125000     0.000000     0.875000
   23    -1.000000   120.000000    -0.577350     0.577350    -0.577350     0.125000     0.000000     0.125000
   24     1.000000    90.000000     0.000000     0.000000     1.000000     0.125000     0.125000     0.000000
   25    -1.000000    90.000000     0.000000     0.000000     1.000000     0.125000     0.875000     0.000000
   26    -1.000000    90.000000    -1.000000     0.000000     0.000000     0.250000     0.000000     0.000000
   27     1.000000   180.000000     0.707107     0.000000     0.707107     0.125000     0.000000     0.875000
   28    -1.000000   180.000000     0.707107     0.000000     0.707107     0.125000     0.000000     0.125000
   29     1.000000   120.000000     0.577350    -0.577350     0.577350     0.125000     0.125000     0.000000
   30    -1.000000   120.000000     0.577350    -0.577350     0.577350     0.125000     0.875000     0.000000
   31     1.000000   120.000000    -0.577350    -0.577350     0.577350     0.125000     0.000000     0.125000
[...]

 FORCES acting on ions
    electron-ion (+dipol)            ewald-force                    non-local-force                 convergence-correction
   0.460E+02 0.139E-13 0.633E-13   -.476E+02 0.107E-12 0.111E-12   0.157E+01 0.277E-20 0.661E-20   -.171E-03 -.482E-13 0.412E-12
   0.954E+01 -.954E+01 -.954E+01   -.918E+01 0.918E+01 0.918E+01   -.362E+00 0.362E+00 0.362E+00   -.244E-04 0.244E-04 0.244E-04
   0.187E-14 -.597E-13 -.460E+02   0.113E-12 0.875E-13 0.476E+02   0.793E-20 -.424E-20 -.157E+01   -.168E-15 -.583E-13 0.171E-03
   0.145E-14 -.460E+02 -.621E-07   0.179E-12 0.476E+02 0.101E-12   -.295E-19 -.157E+01 0.209E-20   0.159E-12 0.171E-03 0.105E-12
   0.451E+01 -.862E-14 -.794E+01   -.453E+01 0.478E-12 0.802E+01   0.219E-01 -.634E-21 -.824E-01   -.431E-05 0.340E-13 0.325E-04
   0.165E+01 -.165E+01 -.289E+01   -.162E+01 0.162E+01 0.284E+01   -.311E-01 0.311E-01 0.453E-01   -.170E-05 0.171E-05 0.186E-04
   -.643E-14 0.555E-12 -.453E+01   0.298E-12 0.350E-12 0.446E+01   0.485E-20 0.217E-20 0.754E-01   0.177E-12 0.812E-14 0.123E-04
   -.368E-14 -.451E+01 -.794E+01   0.467E-12 0.453E+01 0.802E+01   -.238E-19 -.219E-01 -.824E-01   0.551E-13 0.431E-05 0.325E-04
   0.125E+01 -.826E-14 -.129E-14   -.121E+01 0.665E-12 0.105E-12   -.450E-01 -.482E-21 0.335E-21   -.672E-05 0.105E-12 -.429E-12
   0.165E+01 -.165E+01 0.289E+01   -.162E+01 0.162E+01 -.284E+01   -.311E-01 0.311E-01 -.453E-01   -.170E-05 0.171E-05 -.186E-04
   -.813E-14 -.501E-12 0.453E+01   0.286E-12 0.300E-12 -.446E+01   0.345E-20 -.143E-20 -.754E-01   0.445E-12 0.185E-13 -.123E-04
   -.415E-14 -.125E+01 -.468E-06   0.669E-12 0.121E+01 0.986E-13   0.133E-19 0.450E-01 -.505E-21   0.164E-12 0.672E-05 -.186E-12
   0.451E+01 -.466E-13 0.794E+01   -.453E+01 0.446E-12 -.802E+01   0.219E-01 0.981E-22 0.824E-01   -.431E-05 0.998E-13 -.325E-04
   0.954E+01 -.954E+01 0.954E+01   -.918E+01 0.918E+01 -.918E+01   -.362E+00 0.362E+00 -.362E+00   -.244E-04 0.244E-04 -.244E-04
   0.861E-15 0.402E-13 0.460E+02   0.109E-12 0.113E-12 -.476E+02   -.128E-19 -.956E-21 0.157E+01   0.433E-12 -.374E-13 -.171E-03
   -.424E-14 -.451E+01 0.794E+01   0.476E-12 0.453E+01 -.802E+01   -.156E-19 -.219E-01 0.824E-01   0.309E-12 0.431E-05 -.325E-04
   0.451E+01 -.794E+01 0.476E-08   -.453E+01 0.802E+01 0.446E-12   0.219E-01 -.824E-01 0.329E-21   -.431E-05 0.325E-04 -.599E-13
   0.165E+01 -.289E+01 -.165E+01   -.162E+01 0.284E+01 0.162E+01   -.311E-01 0.453E-01 0.311E-01   -.170E-05 0.186E-04 0.171E-05
   -.612E-14 -.794E+01 -.451E+01   0.493E-12 0.802E+01 0.453E+01   0.442E-20 -.824E-01 -.219E-01   0.140E-12 0.325E-04 0.431E-05
   -.807E-14 -.453E+01 0.112E-06   0.347E-12 0.446E+01 0.337E-12   -.302E-19 0.754E-01 0.113E-20   0.188E-12 0.123E-04 -.128E-12
   0.201E+01 -.352E+01 -.352E+01   -.201E+01 0.350E+01 0.350E+01   0.480E-02 0.145E-01 0.145E-01   -.491E-05 0.197E-04 0.197E-04
   0.642E+00 -.111E+01 -.111E+01   -.647E+00 0.111E+01 0.111E+01   0.596E-02 0.280E-02 0.280E-02   0.129E-04 0.877E-05 0.877E-05
   -.788E-14 -.244E+01 -.226E+01   0.140E-11 0.233E+01 0.221E+01   0.108E-19 0.107E+00 0.479E-01   -.943E-13 0.183E-04 0.208E-04
   -.380E-14 -.226E+01 -.244E+01   0.137E-11 0.221E+01 0.233E+01   -.115E-19 0.479E-01 0.107E+00   -.131E-12 0.208E-04 0.183E-04
   0.831E+00 -.166E+01 -.233E-08   -.806E+00 0.158E+01 0.461E-12   -.259E-01 0.769E-01 -.889E-21   0.134E-04 0.107E-04 0.834E-13
   0.642E+00 -.111E+01 0.111E+01   -.647E+00 0.111E+01 -.111E+01   0.596E-02 0.280E-02 -.280E-02   0.129E-04 0.877E-05 -.877E-05
   -.176E-14 -.244E+01 0.226E+01   0.138E-11 0.233E+01 -.221E+01   0.594E-21 0.107E+00 -.479E-01   -.114E-12 0.183E-04 -.208E-04
   -.318E-14 -.810E+00 0.474E-06   0.868E-12 0.844E+00 0.334E-12   0.134E-19 -.335E-01 0.101E-20   -.540E-12 0.509E-05 0.261E-12
   0.201E+01 -.352E+01 0.352E+01   -.201E+01 0.350E+01 -.350E+01   0.480E-02 0.145E-01 -.145E-01   -.491E-05 0.197E-04 -.197E-04
   0.165E+01 -.289E+01 0.165E+01   -.162E+01 0.284E+01 -.162E+01   -.311E-01 0.453E-01 -.311E-01   -.170E-05 0.186E-04 -.171E-05
   -.769E-14 -.794E+01 0.451E+01   0.540E-12 0.802E+01 -.453E+01   -.475E-20 -.824E-01 0.219E-01   0.122E-12 0.325E-04 -.431E-05
   -.302E-14 -.226E+01 0.244E+01   0.134E-11 0.221E+01 -.233E+01   -.185E-19 0.479E-01 -.107E+00   -.203E-12 0.208E-04 -.183E-04
   0.125E+01 0.260E-13 0.201E-14   -.121E+01 0.785E-13 0.689E-12   -.450E-01 -.153E-21 -.123E-20   -.672E-05 0.459E-13 -.340E-12
   0.165E+01 0.289E+01 -.165E+01   -.162E+01 -.284E+01 0.162E+01   -.311E-01 -.453E-01 0.311E-01   -.170E-05 -.186E-04 0.171E-05
   -.174E-14 0.252E-12 -.125E+01   0.659E-12 0.102E-12 0.121E+01   -.101E-19 -.312E-21 0.450E-01   0.116E-12 0.386E-13 0.672E-05
   -.964E-14 0.453E+01 -.112E-06   0.250E-12 -.446E+01 0.329E-12   0.210E-19 -.754E-01 0.740E-21   0.198E-12 -.123E-04 -.931E-13
   0.831E+00 0.315E-13 -.166E+01   -.806E+00 0.450E-12 0.158E+01   -.259E-01 -.840E-21 0.769E-01   0.134E-04 0.157E-12 0.107E-04
   0.642E+00 0.111E+01 -.111E+01   -.647E+00 -.111E+01 0.111E+01   0.596E-02 -.280E-02 0.280E-02   0.129E-04 -.877E-05 0.877E-05
   -.447E-14 0.955E-14 -.810E+00   0.858E-12 0.330E-12 0.844E+00   0.571E-20 0.254E-21 -.335E-01   -.639E-12 0.998E-13 0.509E-05
   -.670E-14 0.226E+01 -.244E+01   0.133E-11 -.221E+01 0.233E+01   0.180E-19 -.479E-01 0.107E+00   -.219E-12 -.208E-04 0.183E-04
   0.528E+00 0.314E-13 0.128E-13   -.536E+00 0.687E-12 0.661E-12   0.730E-02 0.771E-21 0.197E-20   0.259E-04 0.191E-12 0.417E-12
   0.642E+00 0.111E+01 0.111E+01   -.647E+00 -.111E+01 -.111E+01   0.596E-02 -.280E-02 -.280E-02   0.129E-04 -.877E-05 -.877E-05
   -.554E-14 0.718E-13 0.810E+00   0.861E-12 0.316E-12 -.844E+00   0.199E-22 0.109E-20 0.335E-01   -.585E-12 0.397E-13 -.509E-05
   -.541E-14 0.810E+00 -.474E-06   0.894E-12 -.844E+00 0.331E-12   -.311E-20 0.335E-01 0.871E-21   -.655E-12 -.509E-05 0.216E-12
   0.831E+00 0.143E-13 0.166E+01   -.806E+00 0.477E-12 -.158E+01   -.259E-01 0.775E-21 -.769E-01   0.134E-04 0.650E-13 -.107E-04
   0.165E+01 0.289E+01 0.165E+01   -.162E+01 -.284E+01 -.162E+01   -.311E-01 -.453E-01 -.311E-01   -.170E-05 -.186E-04 -.171E-05
   -.337E-14 -.107E-12 0.125E+01   0.631E-12 0.116E-12 -.121E+01   -.228E-20 -.109E-20 -.450E-01   -.462E-13 -.614E-14 -.672E-05
   -.286E-14 0.226E+01 0.244E+01   0.136E-11 -.221E+01 -.233E+01   0.800E-20 -.479E-01 -.107E+00   -.166E-12 -.208E-04 -.183E-04
   0.451E+01 0.794E+01 -.476E-08   -.453E+01 -.802E+01 0.455E-12   0.219E-01 0.824E-01 -.236E-21   -.431E-05 -.325E-04 0.621E-13
   0.954E+01 0.954E+01 -.954E+01   -.918E+01 -.918E+01 0.918E+01   -.362E+00 -.362E+00 0.362E+00   -.244E-04 -.244E-04 0.244E-04
   -.236E-14 0.794E+01 -.451E+01   0.478E-12 -.802E+01 0.453E+01   0.797E-20 0.824E-01 -.219E-01   0.132E-12 -.325E-04 0.431E-05
   0.251E-14 0.460E+02 0.621E-07   0.122E-12 -.476E+02 0.999E-13   0.110E-19 0.157E+01 -.401E-20   0.219E-12 -.171E-03 0.127E-12
   0.201E+01 0.352E+01 -.352E+01   -.201E+01 -.350E+01 0.350E+01   0.480E-02 -.145E-01 0.145E-01   -.491E-05 -.197E-04 0.197E-04
   0.165E+01 0.165E+01 -.289E+01   -.162E+01 -.162E+01 0.284E+01   -.311E-01 -.311E-01 0.453E-01   -.170E-05 -.171E-05 0.186E-04
   -.495E-14 0.244E+01 -.226E+01   0.142E-11 -.233E+01 0.221E+01   -.643E-20 -.107E+00 0.479E-01   -.252E-12 -.183E-04 0.208E-04
   -.440E-14 0.451E+01 -.794E+01   0.493E-12 -.453E+01 0.802E+01   0.152E-19 0.219E-01 -.824E-01   0.422E-13 -.431E-05 0.325E-04
   0.831E+00 0.166E+01 0.233E-08   -.806E+00 -.158E+01 0.468E-12   -.259E-01 -.769E-01 -.158E-20   0.134E-04 -.107E-04 -.310E-13
   0.165E+01 0.165E+01 0.289E+01   -.162E+01 -.162E+01 -.284E+01   -.311E-01 -.311E-01 -.453E-01   -.170E-05 -.171E-05 -.186E-04
   -.540E-14 0.244E+01 0.226E+01   0.142E-11 -.233E+01 -.221E+01   -.159E-19 -.107E+00 -.479E-01   -.681E-13 -.183E-04 -.208E-04
   -.240E-14 0.125E+01 0.468E-06   0.620E-12 -.121E+01 0.105E-12   -.595E-20 -.450E-01 -.153E-21   0.165E-12 -.672E-05 -.188E-12
[...]
   0.794E+01 0.451E+01 -.160E-06   -.802E+01 -.453E+01 0.463E-12   0.824E-01 0.219E-01 -.103E-20   -.325E-04 -.431E-05 0.473E-12
   0.127E+01 0.137E+01 -.137E+01   -.127E+01 -.136E+01 0.136E+01   0.905E-03 -.142E-01 0.142E-01   0.189E-05 0.179E-05 -.179E-05
   0.111E+01 0.642E+00 -.111E+01   -.111E+01 -.647E+00 0.111E+01   -.280E-02 0.596E-02 0.280E-02   -.877E-05 0.129E-04 0.877E-05
   0.137E+01 0.137E+01 -.127E+01   -.136E+01 -.136E+01 0.127E+01   -.142E-01 -.142E-01 -.905E-03   0.179E-05 0.179E-05 -.188E-05
   0.352E+01 0.201E+01 -.352E+01   -.350E+01 -.201E+01 0.350E+01   -.145E-01 0.480E-02 0.145E-01   -.197E-04 -.491E-05 0.197E-04
   0.755E+00 0.869E+00 -.125E-09   -.734E+00 -.856E+00 0.139E-11   -.222E-01 -.127E-01 -.203E-20   0.129E-04 0.453E-04 0.403E-12
   0.111E+01 0.642E+00 0.111E+01   -.111E+01 -.647E+00 -.111E+01   -.280E-02 0.596E-02 -.280E-02   -.877E-05 0.129E-04 -.877E-05
   0.137E+01 0.137E+01 0.127E+01   -.136E+01 -.136E+01 -.127E+01   -.142E-01 -.142E-01 0.905E-03   0.179E-05 0.179E-05 0.188E-05
   0.166E+01 0.831E+00 -.195E-07   -.158E+01 -.806E+00 0.459E-12   -.769E-01 -.259E-01 0.210E-21   -.107E-04 0.134E-04 -.313E-12
   0.127E+01 0.137E+01 0.137E+01   -.127E+01 -.136E+01 -.136E+01   0.905E-03 -.142E-01 -.142E-01   0.189E-05 0.179E-05 0.179E-05
   0.289E+01 0.165E+01 0.165E+01   -.284E+01 -.162E+01 -.162E+01   -.453E-01 -.311E-01 -.311E-01   -.186E-04 -.170E-05 -.170E-05
   0.352E+01 0.352E+01 0.201E+01   -.350E+01 -.350E+01 -.201E+01   -.145E-01 -.145E-01 0.480E-02   -.197E-04 -.197E-04 -.491E-05
   0.352E+01 0.201E+01 0.352E+01   -.350E+01 -.201E+01 -.350E+01   -.145E-01 0.480E-02 -.145E-01   -.197E-04 -.491E-05 -.197E-04
   0.172E-12 -.947E-15 0.206E-11   0.133E-13 0.113E-12 0.106E-12   -.206E-19 0.709E-20 -.646E-20   0.138E-12 -.123E-12 0.298E-12
   -.771E-13 -.355E-11 -.408E-11   -.132E-11 0.656E-12 -.109E-12   -.352E-15 0.653E-15 0.226E-15   0.134E-12 -.126E-12 0.288E-12

 POSITION                                       TOTAL-FORCE (eV/Angst)
     -0.03858     -0.00000      0.00000         0.002597     -0.000000     -0.000000
     -0.00161      2.02636      2.02636        -0.000537      0.000537      0.000537
      2.02475     -0.00000      2.06333        -0.000000     -0.000000     -0.002597
      2.02475      2.06333      0.00000        -0.000000     -0.002597     -0.000000
     -0.00230     -0.00000      4.05542         0.000092     -0.000000     -0.000248
      0.00234      2.02241      6.07442         0.000294     -0.000294     -0.000503
      2.02475     -0.00000      6.05759        -0.000000     -0.000000      0.000174
      2.02475      2.02705      4.05542        -0.000000     -0.000092     -0.000248
      0.00677     -0.00000      8.09900        -0.000573     -0.000000     -0.000000
      0.00234      2.02241     10.12358         0.000294     -0.000294      0.000503
      2.02475     -0.00000     10.14041        -0.000000     -0.000000     -0.000174
      2.02475      2.01798      8.09900        -0.000000      0.000573     -0.000000
     -0.00230     -0.00000     12.14258         0.000092     -0.000000      0.000248
     -0.00161      2.02636     14.17164        -0.000537      0.000537     -0.000537
      2.02475     -0.00000     14.13467        -0.000000     -0.000000      0.002597
      2.02475      2.02705     12.14258        -0.000000     -0.000092      0.000248
     -0.00230      4.05542      0.00000         0.000092     -0.000248     -0.000000
      0.00234      6.07442      2.02241         0.000294     -0.000503     -0.000294
      2.02475      4.05542      2.02705        -0.000000     -0.000248     -0.000092
      2.02475      6.05759      0.00000        -0.000000      0.000174     -0.000000
      0.00496      4.04457      4.04457         0.000175     -0.000202     -0.000202
     -0.00058      6.07318      6.07318         0.000347     -0.000018     -0.000018
      2.02475      4.04530      6.07353        -0.000000     -0.000042     -0.000448
      2.02475      6.07353      4.04530        -0.000000     -0.000448     -0.000042
      0.00257      4.04391      8.09900        -0.000162     -0.000214     -0.000000
     -0.00058      6.07318     10.12482         0.000347     -0.000018      0.000018
      2.02475      4.04530     10.12447        -0.000000     -0.000042      0.000448
      2.02475      6.07720      8.09900        -0.000000      0.000314     -0.000000
      0.00496      4.04457     12.15343         0.000175     -0.000202      0.000202
      0.00234      6.07442     14.17559         0.000294     -0.000503      0.000294
      2.02475      4.05542     14.17095        -0.000000     -0.000248      0.000092
      2.02475      6.07353     12.15270        -0.000000     -0.000448      0.000042
      0.00677      8.09900      0.00000        -0.000573     -0.000000     -0.000000
      0.00234     10.12358      2.02241         0.000294      0.000503     -0.000294
      2.02475      8.09900      2.01798        -0.000000     -0.000000      0.000573
      2.02475     10.14041      0.00000        -0.000000     -0.000174     -0.000000
      0.00257      8.09900      4.04391        -0.000162     -0.000000     -0.000214
     -0.00058     10.12482      6.07318         0.000347      0.000018     -0.000018
      2.02475      8.09900      6.07720        -0.000000     -0.000000      0.000314
      2.02475     10.12447      4.04530        -0.000000      0.000448     -0.000042
     -0.00322      8.09900      8.09900        -0.000449     -0.000000     -0.000000
     -0.00058     10.12482     10.12482         0.000347      0.000018      0.000018
      2.02475      8.09900     10.12080        -0.000000     -0.000000     -0.000314
      2.02475     10.12080      8.09900        -0.000000     -0.000314     -0.000000
      0.00257      8.09900     12.15409        -0.000162     -0.000000      0.000214
      0.00234     10.12358     14.17559         0.000294      0.000503      0.000294
      2.02475      8.09900     14.18002        -0.000000     -0.000000     -0.000573
      2.02475     10.12447     12.15270        -0.000000      0.000448      0.000042
     -0.00230     12.14258      0.00000         0.000092      0.000248     -0.000000
     -0.00161     14.17164      2.02636        -0.000537     -0.000537      0.000537
      2.02475     12.14258      2.02705        -0.000000      0.000248     -0.000092
      2.02475     14.13467      0.00000        -0.000000      0.002597     -0.000000
      0.00496     12.15343      4.04457         0.000175      0.000202     -0.000202
      0.00234     14.17559      6.07442         0.000294      0.000294     -0.000503
      2.02475     12.15270      6.07353        -0.000000      0.000042     -0.000448
      2.02475     14.17095      4.05542        -0.000000      0.000092     -0.000248
      0.00257     12.15409      8.09900        -0.000162      0.000214     -0.000000
      0.00234     14.17559     10.12358         0.000294      0.000294      0.000503
      2.02475     12.15270     10.12447        -0.000000      0.000042      0.000448
      2.02475     14.18002      8.09900        -0.000000     -0.000573     -0.000000
[...]
     14.17818     12.15343      2.01979         0.000202      0.000202     -0.000175
     14.16733     14.17095      0.00000         0.000248      0.000092     -0.000000
     12.15141     12.15111      4.04689         0.000063      0.000403     -0.000403
     12.14957     14.17267      6.07318         0.000018      0.000347     -0.000018
     14.17586     12.15111      6.07134         0.000403      0.000403     -0.000063
     14.17818     14.17821      4.04457         0.000202      0.000175     -0.000202
     12.15147     12.15054      8.09900        -0.000444     -0.000122     -0.000000
     12.14957     14.17267     10.12482         0.000018      0.000347      0.000018
     14.17586     12.15111     10.12666         0.000403      0.000403      0.000063
     14.17884     14.17582      8.09900         0.000214     -0.000162     -0.000000
     12.15141     12.15111     12.15111         0.000063      0.000403      0.000403
     12.14833     14.17559     14.17559         0.000503      0.000294      0.000294
     14.17818     12.15343     14.17821         0.000202      0.000202      0.000175
     14.17818     14.17821     12.15343         0.000202      0.000175      0.000202
      2.02475     -0.00000      0.00000        -0.000000     -0.000000     -0.000000
    total drift:                               -0.000000     -0.000000     -0.000000

  FREE ENERGIE OF THE ION-ELECTRON SYSTEM (eV)
  free  energy   TOTEN  =      -969.41324916 eV

  energy  without entropy=     -969.23131381  energy(sigma->0) =     -969.32228149

 d Force = 0.3869640E-05[ 0.883E-07, 0.765E-05]  d Energy =-0.3968751E-05 0.784E-05
 d Force =-0.9137745E-02[-0.919E-02,-0.908E-02]  d Ewald  =-0.9145604E-02 0.786E-05

 reached required accuracy - stopping structural energy minimisation