 vasp.5.4.4.18Apr17-6-g9f103f2a35 (build May 02 2017 15:33:50) complex

 executed on Intel-16.0.3.210-OMP date 2018.07.06  12:39:22

 INCAR:
 POTCAR:    PAW Al_GW 19Mar2012

 POTCAR:    PAW Al_GW 19Mar2012
   VRHFIN =Al: s2p1

   TITEL  = PAW Al_GW 19Mar2012
   POMASS =   26.982; ZVAL   =    3.000    mass and valenz
   ENMAX  =  240.300; ENMIN  =  180.225 eV

 Optimization of the real space projectors (new method)

 maximal supplied QI-value         = 18.90
 optimisation between [QCUT,QGAM] = [  8.69, 17.57] = [ 21.16, 86.49] Ry
 Optimized for a Real-space Cutoff    1.59 Angstroem

   l    n(q)    QCUT    max X(q) W(low)/X(q) W(high)/X(q)  e(spline)
   0      8     8.693    11.519    0.12E-03    0.31E-04    0.21E-06
   0      8     8.693     5.834    0.89E-04    0.32E-04    0.16E-06
   1      8     8.693    10.132    0.25E-03    0.39E-03    0.25E-06
   1      8     8.693     3.004    0.16E-03    0.27E-03    0.22E-06
   2      7     8.693     3.169    0.39E-03    0.93E-03    0.44E-06
   2      7     8.693     1.605    0.70E-04    0.91E-04    0.19E-06
  PAW Al_GW 19Mar2012                   :

 POSCAR: New structure
  positions in cartesian coordinates
 exchange correlation table for  LEXCH =        8
   RHO(1)=    0.500       N(1)  =     2000
   RHO(2)=  100.500       N(2)  =     4000

 ion  position               nearest neighbor table
   1  0.444  0.444  0.078-
   2  0.444  0.778  0.078-
   3  0.444  0.111  0.078-
   4  0.778  0.444  0.078-
   5  0.778  0.778  0.078-
   6  0.778  0.111  0.078-
   7  0.111  0.444  0.078-
   8  0.111  0.778  0.078-
   9  0.111  0.111  0.078-
  10  0.556  0.556  0.156-
  11  0.556  0.889  0.156-
  12  0.556  0.222  0.156-
  13  0.889  0.556  0.156-
  14  0.889  0.889  0.156-
  15  0.889  0.222  0.156-
  16  0.222  0.556  0.156-
  17  0.222  0.889  0.156-
  18  0.222  0.222  0.156-
  19  0.667  0.667  0.234-
  20  0.667  0.000  0.234-
  21  0.667  0.333  0.234-
  22  0.000  0.667  0.234-
  23  0.000  0.000  0.234-
  24  0.000  0.333  0.234-
  25  0.333  0.667  0.234-
  26  0.333  0.000  0.234-
  27  0.333  0.333  0.234-
  28  0.778  0.778  0.312-
  29  0.778  0.111  0.312-
  30  0.778  0.444  0.312-
  31  0.111  0.778  0.312-
  32  0.111  0.111  0.312-
  33  0.111  0.444  0.312-
  34  0.444  0.778  0.312-
  35  0.444  0.111  0.312-
  36  0.444  0.444  0.312-
  37  0.889  0.889  0.390-
  38  0.889  0.222  0.390-
  39  0.889  0.556  0.390-
  40  0.222  0.889  0.390-
  41  0.222  0.222  0.390-
  42  0.222  0.556  0.390-
  43  0.556  0.889  0.390-
  44  0.556  0.222  0.390-
  45  0.556  0.556  0.390-
  46  0.000  0.000  0.468-
  47  0.000  0.333  0.468-
  48  0.000  0.667  0.468-
  49  0.333  0.000  0.468-
  50  0.333  0.333  0.468-
  51  0.333  0.667  0.468-
  52  0.667  0.000  0.468-
  53  0.667  0.333  0.468-
  54  0.667  0.667  0.468-
  55  0.111  0.111  0.546-
  56  0.111  0.444  0.546-
  57  0.111  0.778  0.546-
  58  0.444  0.111  0.546-
  59  0.444  0.444  0.546-
  60  0.444  0.778  0.546-
[...]
 238  0.333  0.833  0.468-
 239  0.333  0.167  0.468-
 240  0.333  0.500  0.468-
 241  0.667  0.833  0.468-
 242  0.667  0.167  0.468-
 243  0.667  0.500  0.468-
 244  0.111  0.944  0.546-
 245  0.111  0.278  0.546-
 246  0.111  0.611  0.546-
 247  0.444  0.944  0.546-
 248  0.444  0.278  0.546-
 249  0.444  0.611  0.546-
 250  0.778  0.944  0.546-
 251  0.778  0.278  0.546-
 252  0.778  0.611  0.546-

  LATTYP: Found a hexagonal cell.
 ALAT       =    17.1805734625
 C/A-ratio  =     1.7461582447

  Lattice vectors:

 A1 = (   0.0000000000,  -8.5902867312,  14.8788130701)
 A2 = (   0.0000000000,  17.1805734625,   0.0000000000)
 A3 = ( -30.0000000000,   0.0000000000,   0.0000000000)

Analysis of symmetry for initial positions (statically):
 Subroutine PRICEL returns following result:

[...]

  36 primitive cells build up your supercell.

 Routine SETGRP: Setting up the symmetry group for a
 hexagonal supercell.

 Subroutine GETGRP returns: Found 12 space group operations
 (whereof  6 operations were pure point group operations)
 out of a pool of 24 trial point group operations.

The static configuration has the point symmetry C_3v.
 The point group associated with its full space group is D_3d.

Analysis of symmetry for dynamics (positions and initial velocities):
 Subroutine PRICEL returns following result:

  LATTYP: Found a hexagonal cell.
 ALAT       =     2.8634289104
 C/A-ratio  =    10.4769494681

  Lattice vectors:

 A1 = (   0.0000000000,  -1.4317144552,   2.4798021783)
 A2 = (   0.0000000000,   2.8634289104,   0.0000000000)
 A3 = ( -30.0000000000,   0.0000000000,   0.0000000000)

  36 primitive cells build up your supercell.

 Routine SETGRP: Setting up the symmetry group for a
 hexagonal supercell.

 Subroutine GETGRP returns: Found 12 space group operations
 (whereof  6 operations were pure point group operations)
 out of a pool of 24 trial point group operations.

The dynamic configuration has the point symmetry C_3v.
 The point group associated with its full space group is D_3d.

 Subroutine INISYM returns: Found 12 space group operations
 (whereof  6 operations are pure point group operations),
 and found    36 'primitive' translations

 KPOINTS: Automatic generation

Automatic generation of k-mesh.
Space group operators:
 irot       det(A)        alpha          n_x          n_y          n_z        tau_x        tau_y        tau_z
    1     1.000000     0.000000     1.000000     0.000000     0.000000     0.000000     0.000000     0.000000
    2     1.000000   120.000000     1.000000     0.000000     0.000000     0.000000     0.000000     0.000000
    3     1.000000   120.000000    -1.000000     0.000000     0.000000     0.000000     0.000000     0.000000
    4    -1.000000   180.000000     0.000000    -0.500000     0.866025     0.000000     0.000000     0.000000
    5    -1.000000   180.000000     0.000000     1.000000     0.000000     0.000000     0.000000     0.000000
    6    -1.000000   180.000000     0.000000     0.500000     0.866025     0.000000     0.000000     0.000000
    7    -1.000000     0.000000     1.000000     0.000000     0.000000     0.055556    -0.111111    -0.376539
    8    -1.000000   120.000000     1.000000     0.000000     0.000000     0.055556    -0.111111    -0.376539
    9    -1.000000   120.000000    -1.000000     0.000000     0.000000     0.055556    -0.111111    -0.376539
   10     1.000000   180.000000     0.000000    -0.500000     0.866025     0.055556    -0.111111    -0.376539
   11     1.000000   180.000000     0.000000     1.000000     0.000000     0.055556    -0.111111    -0.376539
   12     1.000000   180.000000     0.000000     0.500000     0.866025     0.055556    -0.111111    -0.376539

 Subroutine IBZKPT returns following result:

 Found      2 irreducible k-points:

 Following reciprocal coordinates:
            Coordinates               Weight
  0.000000  0.000000  0.000000      1.000000
  0.500000  0.000000  0.000000      3.000000

 Following cartesian coordinates:
            Coordinates               Weight
  0.000000  0.000000  0.000000      1.000000
  0.000000 -0.029103  0.016802      3.000000

 SYSTEM =  NiAl
 POSCAR =  New structure

 Startparameter for this run:
   NWRITE =      2    write-flag & timer
   PREC   = normal    normal or accurate (medium, high low for compatibility)
   ISTART =      0    job   : 0-new  1-cont  2-samecut
   ICHARG =      2    charge: 1-file 2-atom 10-const
   ISPIN  =      1    spin polarized calculation?
   LNONCOLLINEAR =      F non collinear calculations
   LSORBIT =      F    spin-orbit coupling
   INIWAV =      1    electr: 0-lowe 1-rand  2-diag
   LASPH  =      F    aspherical Exc in radial PAW
   METAGGA=      F    non-selfconsistent MetaGGA calc.

 Electronic Relaxation 1
   ENCUT  =  300.0 eV  22.05 Ry    4.70 a.u.  24.26 24.26 42.37*2*pi/ulx,y,z
   ENINI  =  300.0     initial cutoff
   ENAUG  =  482.1 eV  augmentation charge cutoff
   NELM   =     60;   NELMIN=  6; NELMDL= -5     # of ELM steps
   EDIFF  = 0.5E-05   stopping-criterion for ELM
   LREAL  =      T    real-space projection
   NLSPLINE    = F    spline interpolate recip. space projectors
   LCOMPAT=      F    compatible to vasp.4.4
   GGA_COMPAT  = T    GGA compatible to vasp.4.4-vasp.4.6
   LMAXPAW     = -100 max onsite density
   LMAXMIX     =    2 max onsite mixed and CHGCAR
   VOSKOWN=      0    Vosko Wilk Nusair interpolation
   ROPT   =   -0.00050
 Ionic relaxation
   EDIFFG = 0.5E-04   stopping-criterion for IOM
   NSW    =     40    number of steps for IOM
   NBLOCK =      1;   KBLOCK =     40    inner block; outer block
   IBRION =      2    ionic relax: 0-MD 1-quasi-New 2-CG
   NFREE  =      1    steps in history (QN), initial steepest desc. (CG)
   ISIF   =      1    stress and relaxation
   IWAVPR =     11    prediction:  0-non 1-charg 2-wave 3-comb
   ISYM   =      2    0-nonsym 1-usesym 2-fastsym
   LCORR  =      T    Harris-Foulkes like correction to forces

   POTIM  = 0.2000    time-step for ionic-motion
   TEIN   =    0.0    initial temperature
   TEBEG  =    0.0;   TEEND  =   0.0 temperature during run
   SMASS  =  -3.00    Nose mass-parameter (am)
   estimated Nose-frequenzy (Omega)   =  0.10E-29 period in steps =****** mass=  -0.675E-26a.u.
   SCALEE = 1.0000    scale energy and forces
   NPACO  =    256;   APACO  = 16.0  distance and # of slots for P.C.
   PSTRESS=    0.0 pullay stress

  Mass of Ions in am
   POMASS =  26.98
  Ionic Valenz
   ZVAL   =   3.00
  Atomic Wigner-Seitz radii
  virtual crystal weights
   VCA    =   1.00
   NELECT =     756.0000    total number of electrons
   NUPDOWN=      -1.0000    fix difference up-down

 DOS related values:
   EMIN   =  10.00;   EMAX   =-10.00  energy-range for DOS
   EFERMI =   0.00
   ISMEAR =     0;   SIGMA  =   0.05  broadening in eV -4-tet -1-fermi 0-gaus

 Electronic relaxation 2 (details)
   IALGO  =     38    algorithm
   LDIAG  =      T    sub-space diagonalisation (order eigenvalues)
   LSUBROT=      F    optimize rotation matrix (better conditioning)
   TURBO    =      0    0=normal 1=particle mesh
   IRESTART =      0    0=no restart 2=restart with 2 vectors
   NREBOOT  =      0    no. of reboots
   NMIN     =      0    reboot dimension
   EREF     =   0.00    reference energy to select bands
   IMIX   =      4    mixing-type and parameters
     AMIX     =   0.40;   BMIX     =  1.00
     AMIX_MAG =   1.60;   BMIX_MAG =  1.00
     AMIN     =   0.10
     WC   =   100.;   INIMIX=   1;  MIXPRE=   1;  MAXMIX= -45

 Intra band minimization:
   WEIMIN = 0.0010     energy-eigenvalue tresh-hold
   EBREAK =  0.25E-08  absolut break condition
   DEPER  =   0.30     relativ break condition

   TIME   =   0.40     timestep for ELM

  volume/ion in A,a.u.               =      30.43       205.36
  Fermi-wavevector in a.u.,A,eV,Ry     =   0.756263  1.429130  7.781637  0.571934
  Thomas-Fermi vector in A             =   1.854344

 Write flags
   LWAVE        =      F    write WAVECAR
   LDOWNSAMPLE  =      F    k-point downsampling of WAVECAR
   LCHARG       =      F    write CHGCAR
   LVTOT        =      F    write LOCPOT, total local potential
   LVHAR        =      F    write LOCPOT, Hartree potential only
[...]

 FORCES acting on ions
    electron-ion (+dipol)            ewald-force                    non-local-force                 convergence-correction
   0.314E+03 -.607E-04 -.351E-04   -.313E+03 -.354E-11 -.205E-11   -.846E+00 -.469E-17 -.142E-17   0.141E-03 0.179E-10 0.103E-10
   0.314E+03 -.113E-04 0.517E-05   -.313E+03 -.357E-11 -.149E-11   -.846E+00 0.135E-16 -.112E-16   0.141E-03 -.357E-10 0.312E-10
   0.314E+03 -.226E-05 0.722E-04   -.313E+03 -.306E-11 0.589E-11   -.846E+00 0.219E-16 0.327E-18   0.141E-03 0.897E-11 -.413E-11
   0.314E+03 -.117E-05 -.124E-04   -.313E+03 -.321E-11 -.247E-11   -.846E+00 0.223E-17 -.146E-16   0.141E-03 0.886E-11 -.462E-10
   0.314E+03 0.750E-05 0.433E-05   -.313E+03 -.301E-11 -.196E-11   -.846E+00 0.986E-17 -.686E-17   0.141E-03 0.540E-10 0.316E-10
   0.314E+03 -.504E-04 0.328E-04   -.313E+03 -.254E-11 0.536E-11   -.846E+00 -.473E-17 -.119E-16   0.141E-03 0.444E-10 -.141E-10
   0.314E+03 0.614E-04 -.380E-04   -.313E+03 0.341E-11 -.542E-11   -.846E+00 0.538E-17 -.894E-19   0.141E-03 0.114E-11 0.965E-11
   0.314E+03 0.322E-05 -.600E-04   -.313E+03 0.337E-11 -.487E-11   -.846E+00 0.142E-16 -.426E-17   0.141E-03 0.103E-10 0.457E-10
   0.314E+03 0.518E-04 0.299E-04   -.313E+03 0.405E-11 0.234E-11   -.846E+00 0.586E-17 -.101E-16   0.141E-03 -.250E-10 -.147E-10
   0.210E+03 0.227E-04 0.131E-04   -.210E+03 0.408E-11 0.235E-11   -.177E+00 0.135E-19 0.298E-18   -.339E-04 0.519E-09 0.300E-09
   0.210E+03 0.130E-05 -.276E-04   -.210E+03 0.343E-11 -.476E-11   -.177E+00 -.153E-18 0.104E-17   -.339E-04 -.166E-10 -.630E-09
   0.210E+03 0.970E-05 -.509E-05   -.210E+03 0.455E-11 -.367E-12   -.177E+00 -.449E-17 -.224E-17   -.339E-04 0.577E-10 -.532E-10
   0.210E+03 -.232E-04 0.149E-04   -.210E+03 -.244E-11 0.529E-11   -.177E+00 -.158E-17 0.118E-17   -.339E-04 -.554E-09 0.301E-09
   0.210E+03 -.142E-04 -.819E-05   -.210E+03 -.305E-11 -.176E-11   -.177E+00 -.359E-17 -.176E-17   -.339E-04 -.559E-09 -.322E-09
   0.210E+03 -.203E-05 0.162E-04   -.210E+03 -.172E-11 0.253E-11   -.177E+00 0.150E-17 -.185E-17   -.339E-04 -.170E-10 0.615E-09
   0.210E+03 0.439E-06 0.109E-04   -.210E+03 0.205E-11 0.419E-11   -.177E+00 -.510E-17 -.273E-17   -.339E-04 -.173E-10 0.764E-10
   0.210E+03 0.130E-04 -.986E-05   -.210E+03 0.124E-11 -.275E-11   -.177E+00 0.678E-18 -.102E-17   -.339E-04 0.524E-09 -.322E-09
   0.210E+03 -.784E-05 -.453E-05   -.210E+03 0.253E-11 0.147E-11   -.177E+00 -.204E-17 0.156E-17   -.339E-04 -.923E-10 -.533E-10
   0.104E+03 0.181E-05 0.105E-05   -.104E+03 -.691E-11 -.397E-11   0.169E+00 -.166E-17 -.366E-17   -.288E-04 0.147E-10 0.832E-11
   0.104E+03 0.300E-04 -.583E-05   -.104E+03 -.638E-11 0.309E-11   0.169E+00 0.311E-17 -.633E-17   -.288E-04 0.608E-09 -.149E-10
   0.104E+03 0.202E-04 -.256E-04   -.104E+03 -.545E-11 0.951E-11   0.169E+00 0.159E-17 0.291E-17   -.288E-04 0.332E-09 -.494E-09
   0.104E+03 0.997E-05 0.289E-04   -.104E+03 -.523E-12 -.705E-11   0.169E+00 -.174E-17 -.137E-17   -.288E-04 0.291E-09 0.534E-09
   0.104E+03 -.113E-06 -.655E-07   -.104E+03 -.163E-13 0.747E-14   0.169E+00 0.256E-17 0.179E-17   -.288E-04 0.141E-10 0.865E-11
   0.104E+03 -.185E-04 -.242E-04   -.104E+03 0.917E-12 0.642E-11   0.169E+00 -.108E-17 -.255E-17   -.288E-04 -.303E-09 -.494E-09
   0.104E+03 -.121E-04 0.303E-04   -.104E+03 0.550E-11 -.945E-11   0.169E+00 0.816E-18 0.204E-17   -.288E-04 -.262E-09 0.534E-09
   0.104E+03 -.302E-04 -.390E-05   -.104E+03 0.602E-11 -.239E-11   0.169E+00 -.225E-17 -.193E-17   -.288E-04 -.579E-09 -.151E-10
   0.104E+03 -.191E-05 -.110E-05   -.104E+03 0.697E-11 0.402E-11   0.169E+00 -.944E-18 -.682E-17   -.288E-04 0.154E-10 0.859E-11
   0.959E-03 0.123E-04 0.711E-05   -.235E-10 -.314E-11 -.183E-11   0.130E-18 0.120E-20 -.460E-21   -.151E-07 -.372E-10 -.213E-10
   0.971E-03 -.368E-04 0.247E-04   -.184E-10 -.195E-11 0.299E-11   -.115E-18 -.850E-21 -.331E-22   -.152E-07 0.132E-09 -.752E-10
   0.960E-03 -.798E-06 -.170E-04   -.183E-10 -.288E-11 -.236E-11   -.389E-20 0.820E-21 0.186E-21   -.151E-07 0.402E-12 0.450E-10
   0.971E-03 0.303E-05 -.442E-04   -.184E-10 0.165E-11 -.311E-11   -.113E-18 -.131E-20 0.388E-21   -.152E-07 0.362E-12 0.152E-09
   0.971E-03 0.388E-04 0.224E-04   -.134E-10 0.281E-11 0.163E-11   0.127E-19 0.642E-21 -.711E-22   -.152E-07 -.131E-09 -.752E-10
   0.101E-02 0.517E-04 -.324E-04   -.133E-10 0.168E-11 -.360E-11   0.105E-18 -.497E-21 -.483E-21   -.156E-07 -.117E-09 0.685E-10
   0.960E-03 -.151E-04 0.779E-05   -.183E-10 -.356E-11 -.139E-11   -.466E-20 -.352E-21 0.163E-21   -.151E-07 0.398E-10 -.221E-10
   0.101E-02 -.217E-05 0.610E-04   -.133E-10 -.221E-11 0.326E-11   0.440E-19 -.200E-21 -.200E-22   -.156E-07 0.152E-11 -.135E-09
   0.101E-02 -.508E-04 -.293E-04   -.132E-10 -.331E-11 -.192E-11   -.111E-18 -.478E-21 -.268E-21   -.156E-07 0.119E-09 0.680E-10
   -.104E+03 -.380E-04 -.219E-04   0.104E+03 -.281E-11 -.164E-11   -.169E+00 -.853E-18 0.265E-17   0.288E-04 0.407E-09 0.235E-09
   -.104E+03 -.267E-05 0.441E-04   0.104E+03 -.148E-11 0.265E-11   -.169E+00 0.260E-18 0.489E-17   0.288E-04 -.147E-10 -.497E-09
   -.104E+03 -.401E-04 0.250E-04   0.104E+03 -.231E-11 0.467E-11   -.169E+00 0.233E-17 -.213E-17   0.288E-04 0.421E-09 -.261E-09
   -.104E+03 0.369E-04 -.244E-04   0.104E+03 0.155E-11 -.262E-11   -.169E+00 0.564E-18 0.494E-17   0.288E-04 -.437E-09 0.236E-09
   -.104E+03 -.177E-05 -.102E-05   0.104E+03 0.307E-11 0.156E-11   -.169E+00 0.613E-18 -.280E-17   0.288E-04 0.821E-10 0.471E-10
   -.104E+03 0.114E-05 0.437E-05   0.104E+03 0.202E-11 0.363E-11   -.169E+00 -.258E-17 0.304E-17   0.288E-04 -.146E-10 -.121E-09
   -.104E+03 0.158E-05 -.473E-04   0.104E+03 0.283E-11 -.414E-11   -.169E+00 0.413E-17 -.169E-17   0.288E-04 -.157E-10 0.496E-09
   -.104E+03 0.435E-05 -.120E-05   0.104E+03 0.433E-11 -.297E-13   -.169E+00 -.628E-18 0.434E-17   0.288E-04 -.113E-09 0.478E-10
   -.104E+03 0.391E-04 0.226E-04   0.104E+03 0.349E-11 0.200E-11   -.169E+00 0.280E-17 0.382E-17   0.288E-04 -.452E-09 -.261E-09
   -.210E+03 0.219E-06 0.127E-06   0.210E+03 0.510E-13 0.504E-13   0.177E+00 0.278E-17 -.110E-17   0.338E-04 0.173E-10 0.996E-11
   -.210E+03 -.248E-04 -.520E-04   0.210E+03 0.100E-11 0.645E-11   0.177E+00 -.761E-20 0.849E-18   0.338E-04 0.112E-09 0.141E-09
   -.210E+03 0.295E-04 0.496E-04   0.210E+03 -.454E-12 -.728E-11   0.177E+00 0.229E-17 0.722E-18   0.338E-04 -.486E-10 -.139E-09
   -.210E+03 -.574E-04 0.453E-05   0.210E+03 0.607E-11 -.234E-11   0.177E+00 0.168E-18 0.112E-17   0.338E-04 0.178E-09 0.265E-10
   -.210E+03 -.277E-05 -.160E-05   0.210E+03 0.701E-11 0.405E-11   0.177E+00 0.143E-17 0.197E-17   0.338E-04 0.173E-10 0.990E-11
   -.210E+03 -.329E-04 0.516E-04   0.210E+03 0.556E-11 -.966E-11   0.177E+00 0.229E-17 -.286E-18   0.338E-04 0.832E-10 -.140E-09
   -.210E+03 0.577E-04 0.748E-06   0.210E+03 -.654E-11 0.327E-11   0.177E+00 0.141E-17 0.190E-17   0.338E-04 -.145E-09 0.276E-10
   -.210E+03 0.282E-04 -.542E-04   0.210E+03 -.562E-11 0.966E-11   0.177E+00 0.182E-17 -.115E-17   0.338E-04 -.794E-10 0.142E-09
   -.210E+03 0.301E-05 0.174E-05   0.210E+03 -.706E-11 -.405E-11   0.177E+00 0.672E-19 0.150E-17   0.338E-04 0.169E-10 0.995E-11
   -.314E+03 0.768E-04 0.444E-04   0.313E+03 0.263E-11 0.153E-11   0.846E+00 0.115E-17 0.134E-16   -.141E-03 0.448E-10 0.260E-10
   -.314E+03 0.932E-04 -.574E-04   0.313E+03 0.149E-11 -.431E-11   0.846E+00 0.310E-17 0.487E-17   -.141E-03 0.500E-10 -.411E-10
   -.314E+03 0.483E-05 -.880E-04   0.313E+03 0.187E-11 -.336E-11   0.846E+00 -.681E-17 0.187E-16   -.141E-03 -.959E-11 -.692E-10
   -.314E+03 -.313E-05 0.109E-03   0.313E+03 -.298E-11 0.346E-11   0.846E+00 0.105E-17 -.178E-17   -.141E-03 -.109E-10 0.642E-10
   -.314E+03 -.913E-04 -.527E-04   0.313E+03 -.432E-11 -.227E-11   0.846E+00 0.114E-16 0.217E-16   -.141E-03 -.709E-10 -.406E-10
   -.314E+03 -.183E-04 0.877E-05   0.313E+03 -.370E-11 -.137E-11   0.846E+00 0.212E-17 0.115E-16   -.141E-03 0.338E-10 -.314E-10
[...]
   -.210E+03 -.329E-04 0.516E-04   0.210E+03 0.387E-11 -.659E-11   0.177E+00 0.108E-17 0.816E-18   0.338E-04 0.831E-10 -.140E-09
   -.210E+03 -.574E-04 0.453E-05   0.210E+03 0.475E-11 -.113E-11   0.177E+00 0.205E-17 -.322E-18   0.338E-04 0.178E-09 0.265E-10
   -.210E+03 0.282E-04 -.542E-04   0.210E+03 -.378E-11 0.664E-11   0.177E+00 -.122E-17 0.204E-17   0.338E-04 -.796E-10 0.142E-09
   -.210E+03 0.301E-05 0.174E-05   0.210E+03 -.598E-11 -.345E-11   0.177E+00 0.115E-17 -.327E-18   0.338E-04 0.170E-10 0.101E-10
   -.210E+03 0.577E-04 0.748E-06   0.210E+03 -.511E-11 0.202E-11   0.177E+00 0.233E-17 0.187E-17   0.338E-04 -.145E-09 0.276E-10
   -.314E+03 0.932E-04 -.574E-04   0.313E+03 0.222E-11 -.677E-12   0.846E+00 0.313E-17 0.970E-17   -.141E-03 0.500E-10 -.412E-10
   -.314E+03 0.483E-05 -.880E-04   0.313E+03 0.209E-11 0.367E-12   0.846E+00 -.923E-17 -.192E-16   -.141E-03 -.942E-11 -.691E-10
   -.314E+03 0.768E-04 0.444E-04   0.313E+03 0.264E-11 0.152E-11   0.846E+00 -.587E-18 0.245E-16   -.141E-03 0.446E-10 0.261E-10
   -.314E+03 -.913E-04 -.527E-04   0.313E+03 -.804E-13 0.175E-12   0.846E+00 -.102E-16 -.164E-16   -.141E-03 -.709E-10 -.407E-10
   -.314E+03 -.183E-04 0.877E-05   0.313E+03 0.278E-13 0.117E-11   0.846E+00 -.877E-17 0.288E-16   -.141E-03 0.337E-10 -.312E-10
   -.314E+03 -.313E-05 0.109E-03   0.313E+03 0.531E-12 0.227E-11   0.846E+00 0.934E-18 0.948E-17   -.141E-03 -.107E-10 0.642E-10
   -.314E+03 -.157E-05 -.203E-04   0.313E+03 0.855E-12 -.624E-12   0.846E+00 0.434E-17 0.203E-16   -.141E-03 -.964E-11 0.447E-10
   -.314E+03 0.138E-04 0.794E-05   0.313E+03 0.729E-12 0.413E-12   0.846E+00 -.125E-16 0.131E-16   -.141E-03 -.541E-10 -.316E-10
   -.314E+03 -.738E-04 0.482E-04   0.313E+03 0.143E-11 0.140E-11   0.846E+00 -.119E-16 -.868E-17   -.141E-03 -.642E-10 0.263E-10
   0.317E-01 -.272E-05 -.157E-05   -.318E-11 0.863E-13 0.117E-13   -.437E-13 0.388E-17 -.323E-16   -.229E-05 -.270E-10 -.156E-10

 POSITION                                       TOTAL-FORCE (eV/Angst)
      2.36204    -11.45372     -6.61281         0.000251      0.000000     -0.000000
      2.36204    -14.31714    -11.57241         0.000251      0.000000     -0.000000
      2.36204     -8.59029     -1.65320         0.000251     -0.000000      0.000000
      2.36204    -17.18057     -6.61281         0.000251      0.000000     -0.000000
      2.36204    -20.04400    -11.57241         0.000251      0.000000      0.000000
      2.36204    -14.31714     -1.65320         0.000251     -0.000000     -0.000000
      2.36204     -5.72686     -6.61281         0.000251      0.000000     -0.000000
      2.36204     -8.59029    -11.57241         0.000251      0.000000     -0.000000
      2.36204     -2.86343     -1.65320         0.000251     -0.000000     -0.000000
      4.71078    -14.31714     -8.26601        -0.000043     -0.000000      0.000000
      4.71078    -17.18057    -13.22561        -0.000043      0.000000      0.000000
      4.71078    -11.45372     -3.30640        -0.000043     -0.000000      0.000000
      4.71078    -20.04400     -8.26601        -0.000043     -0.000000      0.000000
      4.71078    -22.90743    -13.22561        -0.000043      0.000000      0.000000
      4.71078    -17.18057     -3.30640        -0.000043      0.000000      0.000000
      4.71078     -8.59029     -8.26601        -0.000043     -0.000000      0.000000
      4.71078    -11.45372    -13.22561        -0.000043      0.000000      0.000000
      4.71078     -5.72686     -3.30640        -0.000043     -0.000000      0.000000
      7.01272    -17.18057     -9.91921        -0.000223      0.000000      0.000000
      7.01272    -11.45372      0.00000        -0.000223     -0.000000     -0.000000
      7.01272    -14.31714     -4.95960        -0.000223     -0.000000      0.000000
      7.01272     -5.72686     -9.91921        -0.000223     -0.000000      0.000000
      7.01272      0.00000      0.00000        -0.000223     -0.000000      0.000000
      7.01272     -2.86343     -4.95960        -0.000223      0.000000     -0.000000
      7.01272    -11.45372     -9.91921        -0.000223      0.000000     -0.000000
      7.01272     -5.72686     -0.00000        -0.000223      0.000000      0.000000
      7.01272     -8.59029     -4.95960        -0.000223     -0.000000     -0.000000
      9.35192    -20.04400    -11.57241        -0.000000      0.000000      0.000000
      9.35192    -14.31714     -1.65320         0.000000      0.000000      0.000000
      9.35192    -17.18057     -6.61281        -0.000000     -0.000000      0.000000
      9.35192     -8.59029    -11.57241        -0.000000      0.000000     -0.000000
      9.35192     -2.86343     -1.65320        -0.000000      0.000000      0.000000
      9.35192     -5.72686     -6.61281        -0.000000     -0.000000     -0.000000
      9.35192    -14.31714    -11.57241        -0.000000      0.000000      0.000000
      9.35192     -8.59029     -1.65320        -0.000000     -0.000000     -0.000000
      9.35192    -11.45372     -6.61281         0.000000     -0.000000      0.000000
     11.69112    -22.90743    -13.22561         0.000223      0.000000     -0.000000
     11.69112    -17.18057     -3.30640         0.000223     -0.000000     -0.000000
     11.69112    -20.04400     -8.26601         0.000223      0.000000      0.000000
     11.69112    -11.45372    -13.22561         0.000223      0.000000      0.000000
     11.69112     -5.72686     -3.30640         0.000223     -0.000000     -0.000000
     11.69112     -8.59029     -8.26601         0.000223      0.000000      0.000000
     11.69112    -17.18057    -13.22561         0.000223      0.000000      0.000000
     11.69112    -11.45372     -3.30640         0.000223     -0.000000      0.000000
     11.69112    -14.31714     -8.26601         0.000223     -0.000000     -0.000000
     13.99306     -0.00000      0.00000         0.000043     -0.000000     -0.000000
     13.99306     -2.86343     -4.95960         0.000043     -0.000000      0.000000
     13.99306     -5.72686     -9.91921         0.000043     -0.000000     -0.000000
     13.99306     -5.72686      0.00000         0.000043      0.000000     -0.000000
     13.99306     -8.59029     -4.95960         0.000043     -0.000000      0.000000
     13.99306    -11.45372     -9.91921         0.000043     -0.000000      0.000000
     13.99306    -11.45372      0.00000         0.000043      0.000000      0.000000
     13.99306    -14.31714     -4.95960         0.000043     -0.000000      0.000000
     13.99306    -17.18057     -9.91921         0.000043     -0.000000     -0.000000
     16.34180     -2.86343     -1.65320        -0.000251      0.000000      0.000000
     16.34180     -5.72686     -6.61281        -0.000251     -0.000000      0.000000
     16.34180     -8.59029    -11.57241        -0.000251     -0.000000      0.000000
     16.34180     -8.59029     -1.65320        -0.000251      0.000000      0.000000
     16.34180    -11.45372     -6.61281        -0.000251     -0.000000     -0.000000
     16.34180    -14.31714    -11.57241        -0.000251     -0.000000      0.000000
[...]
     13.99306    -12.88543    -12.39901         0.000043      0.000000     -0.000000
     13.99306     -7.15857     -2.47980         0.000043      0.000000     -0.000000
     13.99306    -10.02200     -7.43941         0.000043     -0.000000     -0.000000
     13.99306    -18.61229    -12.39901         0.000043     -0.000000     -0.000000
     13.99306    -12.88543     -2.47980         0.000043     -0.000000     -0.000000
     13.99306    -15.74886     -7.43941         0.000043     -0.000000     -0.000000
     16.34180    -10.02200    -14.05221        -0.000251     -0.000000      0.000000
     16.34180     -4.29514     -4.13300        -0.000251     -0.000000     -0.000000
     16.34180     -7.15857     -9.09261        -0.000251     -0.000000     -0.000000
     16.34180    -15.74886    -14.05221        -0.000251     -0.000000      0.000000
     16.34180    -10.02200     -4.13300        -0.000251      0.000000      0.000000
     16.34180    -12.88543     -9.09261        -0.000251     -0.000000     -0.000000
     16.34180    -21.47572    -14.05221        -0.000251     -0.000000      0.000000
     16.34180    -15.74886     -4.13300        -0.000251     -0.000000     -0.000000
     16.34180    -18.61229     -9.09261        -0.000251     -0.000000      0.000000
    total drift:                                0.031668     -0.000003     -0.000002

  FREE ENERGIE OF THE ION-ELECTRON SYSTEM (eV)
  free  energy   TOTEN  =      -919.29421027 eV

  energy  without entropy=     -919.23853729  energy(sigma->0) =     -919.26637378

 d Force = 0.1421544E-03[-0.304E-06, 0.285E-03]  d Energy = 0.1449687E-03-0.281E-05
 d Force = 0.5767736E+01[ 0.577E+01, 0.577E+01]  d Ewald  = 0.5767736E+01-0.352E-08

 reached required accuracy - stopping structural energy minimisation