 vasp.5.4.4.18Apr17-6-g9f103f2a35 (build May 02 2017 15:33:50) complex

 executed on Intel-16.0.3.210-OMP date 2018.07.05  23:14:48

 INCAR:
 POTCAR:    PAW Ni_GW 31Mar2010
 POTCAR:    PAW Al_GW 19Mar2012

 POTCAR:    PAW Ni_GW 31Mar2010
   VRHFIN =Ni:

   TITEL  = PAW Ni_GW 31Mar2010
   POMASS =   58.690; ZVAL   =   10.000    mass and valenz
   ENMAX  =  357.323; ENMIN  =  267.992 eV

 POTCAR:    PAW Al_GW 19Mar2012
   VRHFIN =Al: s2p1

   TITEL  = PAW Al_GW 19Mar2012
   POMASS =   26.982; ZVAL   =    3.000    mass and valenz
   ENMAX  =  240.300; ENMIN  =  180.225 eV

 Optimization of the real space projectors (new method)

 maximal supplied QI-value         = 16.25
 optimisation between [QCUT,QGAM] = [  8.78, 17.71] = [ 21.57, 87.87] Ry
 Optimized for a Real-space Cutoff    1.55 Angstroem

   l    n(q)    QCUT    max X(q) W(low)/X(q) W(high)/X(q)  e(spline)
   2      7     8.776    90.918    0.49E-03    0.31E-03    0.19E-06
   2      7     8.776    88.873    0.50E-03    0.32E-03    0.19E-06
   0      8     8.776    17.118    0.77E-04    0.31E-04    0.38E-07
   0      8     8.776     8.062    0.82E-04    0.33E-04    0.42E-07
   1      8     8.776     4.910    0.92E-04    0.24E-03    0.96E-07
   1      8     8.776     3.344    0.63E-04    0.17E-03    0.76E-07
   3      7     8.776     5.513    0.45E-03    0.35E-03    0.68E-07
 Optimization of the real space projectors (new method)

 maximal supplied QI-value         = 18.90
 optimisation between [QCUT,QGAM] = [  8.69, 17.57] = [ 21.16, 86.49] Ry
 Optimized for a Real-space Cutoff    1.59 Angstroem

   l    n(q)    QCUT    max X(q) W(low)/X(q) W(high)/X(q)  e(spline)
   0      8     8.693    11.519    0.12E-03    0.31E-04    0.21E-06
   0      8     8.693     5.834    0.89E-04    0.32E-04    0.16E-06
   1      8     8.693    10.132    0.25E-03    0.39E-03    0.25E-06
   1      8     8.693     3.004    0.16E-03    0.27E-03    0.22E-06
   2      7     8.693     3.169    0.39E-03    0.93E-03    0.44E-06
   2      7     8.693     1.605    0.70E-04    0.91E-04    0.19E-06
  PAW Ni_GW 31Mar2010                   :
  PAW Al_GW 19Mar2012                   :

 POSCAR: New structure
  positions in cartesian coordinates
 exchange correlation table for  LEXCH =        8
   RHO(1)=    0.500       N(1)  =     2000
   RHO(2)=  100.500       N(2)  =     4000

 ion  position               nearest neighbor table
   1  0.000  0.000  0.000- 126 2.51 130 2.51 146 2.51 150 2.51 226 2.51 230 2.51 246 2.51 250 2.51
                             6 2.90  21 2.90  26 2.90 101 2.90   2 2.90   5 2.90
   2  0.000  0.000  0.200- 127 2.51 147 2.51 227 2.51 247 2.51 226 2.51 146 2.51 246 2.51 126 2.51
                             3 2.90  27 2.90 102 2.90   1 2.90   7 2.90  22 2.90
   3  0.000  0.000  0.400- 127 2.51 128 2.51 147 2.51 148 2.51 227 2.51 228 2.51 247 2.51 248 2.51
                             2 2.90  28 2.90 103 2.90   4 2.90   8 2.90  23 2.90
   4  0.000  0.000  0.600- 128 2.51 129 2.51 148 2.51 149 2.51 228 2.51 229 2.51 248 2.51 249 2.51
                             5 2.90  29 2.90 104 2.90   3 2.90   9 2.90  24 2.90
   5  0.000  0.000  0.800- 129 2.51 149 2.51 229 2.51 249 2.51 130 2.51 230 2.51 150 2.51 250 2.51
                             4 2.90  30 2.90 105 2.90   1 2.90  10 2.90  25 2.90
   6  0.000  0.200  0.000- 131 2.51 135 2.51 231 2.51 235 2.51 226 2.51 230 2.51 126 2.51 130 2.51
                            11 2.90  31 2.90 106 2.90   7 2.90  10 2.90   1 2.90
   7  0.000  0.200  0.200- 132 2.51 232 2.51 127 2.51 227 2.51 231 2.51 131 2.51 226 2.51 126 2.51
                             8 2.90  12 2.90   2 2.90   6 2.90  32 2.90 107 2.90
   8  0.000  0.200  0.400- 132 2.51 133 2.51 232 2.51 233 2.51 227 2.51 228 2.51 127 2.51 128 2.51
                             7 2.90  13 2.90   9 2.90   3 2.90  33 2.90 108 2.90
   9  0.000  0.200  0.600- 133 2.51 134 2.51 233 2.51 234 2.51 228 2.51 229 2.51 128 2.51 129 2.51
                            10 2.90  14 2.90   4 2.90   8 2.90  34 2.90 109 2.90
  10  0.000  0.200  0.800- 134 2.51 234 2.51 135 2.51 229 2.51 129 2.51 235 2.51 130 2.51 230 2.51
                             9 2.90  15 2.90   5 2.90   6 2.90  35 2.90 110 2.90
  11  0.000  0.400  0.000- 131 2.51 135 2.51 136 2.51 140 2.51 231 2.51 235 2.51 236 2.51 240 2.51
                             6 2.90  36 2.90 111 2.90  12 2.90  15 2.90  16 2.90
  12  0.000  0.400  0.200- 132 2.51 137 2.51 232 2.51 237 2.51 231 2.51 136 2.51 236 2.51 131 2.51
                             7 2.90  13 2.90  11 2.90  17 2.90  37 2.90 112 2.90
  13  0.000  0.400  0.400- 132 2.51 133 2.51 137 2.51 138 2.51 232 2.51 233 2.51 237 2.51 238 2.51
                             8 2.90  12 2.90  14 2.90  18 2.90  38 2.90 113 2.90
  14  0.000  0.400  0.600- 133 2.51 134 2.51 138 2.51 139 2.51 233 2.51 234 2.51 238 2.51 239 2.51
                             9 2.90  15 2.90  13 2.90  19 2.90  39 2.90 114 2.90
  15  0.000  0.400  0.800- 134 2.51 139 2.51 234 2.51 239 2.51 135 2.51 235 2.51 140 2.51 240 2.51
                            10 2.90  14 2.90  11 2.90  20 2.90  40 2.90 115 2.90
  16  0.000  0.600  0.000- 136 2.51 140 2.51 141 2.51 145 2.51 236 2.51 240 2.51 241 2.51 245 2.51
                            21 2.90  41 2.90 116 2.90  17 2.90  20 2.90  11 2.90
  17  0.000  0.600  0.200- 137 2.51 142 2.51 237 2.51 242 2.51 236 2.51 141 2.51 241 2.51 136 2.51
                            18 2.90  22 2.90  12 2.90  16 2.90  42 2.90 117 2.90
  18  0.000  0.600  0.400- 137 2.51 138 2.51 142 2.51 143 2.51 237 2.51 238 2.51 242 2.51 243 2.51
                            17 2.90  23 2.90  19 2.90  13 2.90  43 2.90 118 2.90
  19  0.000  0.600  0.600- 138 2.51 139 2.51 143 2.51 144 2.51 238 2.51 239 2.51 243 2.51 244 2.51
                            20 2.90  24 2.90  14 2.90  18 2.90  44 2.90 119 2.90
  20  0.000  0.600  0.800- 139 2.51 144 2.51 239 2.51 244 2.51 140 2.51 240 2.51 145 2.51 245 2.51
                            19 2.90  25 2.90  15 2.90  16 2.90  45 2.90 120 2.90
  21  0.000  0.800  0.000- 141 2.51 145 2.51 241 2.51 245 2.51 146 2.51 150 2.51 246 2.51 250 2.51
                            16 2.90  46 2.90 121 2.90   1 2.90  22 2.90  25 2.90
  22  0.000  0.800  0.200- 142 2.51 242 2.51 147 2.51 241 2.51 141 2.51 247 2.51 246 2.51 146 2.51
                            17 2.90  23 2.90  21 2.90   2 2.90  47 2.90 122 2.90
  23  0.000  0.800  0.400- 142 2.51 143 2.51 242 2.51 243 2.51 147 2.51 148 2.51 247 2.51 248 2.51
                            18 2.90  22 2.90   3 2.90  24 2.90  48 2.90 123 2.90
  24  0.000  0.800  0.600- 143 2.51 144 2.51 243 2.51 244 2.51 148 2.51 149 2.51 248 2.51 249 2.51
                            19 2.90  25 2.90  23 2.90   4 2.90  49 2.90 124 2.90
  25  0.000  0.800  0.800- 144 2.51 244 2.51 149 2.51 145 2.51 245 2.51 249 2.51 150 2.51 250 2.51
                            20 2.90  24 2.90  21 2.90   5 2.90  50 2.90 125 2.90
  26  0.200  0.000  0.000- 151 2.51 155 2.51 171 2.51 175 2.51 126 2.51 130 2.51 146 2.51 150 2.51
                            51 2.90  46 2.90   1 2.90  27 2.90  30 2.90  31 2.90
  27  0.200  0.000  0.200- 152 2.51 172 2.51 151 2.51 127 2.51 171 2.51 147 2.51 146 2.51 126 2.51
                            28 2.90  52 2.90   2 2.90  32 2.90  47 2.90  26 2.90
  28  0.200  0.000  0.400- 152 2.51 153 2.51 172 2.51 173 2.51 127 2.51 128 2.51 147 2.51 148 2.51
                            27 2.90  53 2.90  29 2.90  33 2.90  48 2.90   3 2.90
  29  0.200  0.000  0.600- 153 2.51 154 2.51 173 2.51 174 2.51 128 2.51 129 2.51 148 2.51 149 2.51
                            30 2.90  54 2.90   4 2.90  34 2.90  49 2.90  28 2.90
  30  0.200  0.000  0.800- 154 2.51 174 2.51 129 2.51 155 2.51 149 2.51 175 2.51 130 2.51 150 2.51
                            29 2.90  55 2.90   5 2.90  35 2.90  50 2.90  26 2.90
  31  0.200  0.200  0.000- 156 2.51 160 2.51 151 2.51 155 2.51 131 2.51 135 2.51 126 2.51 130 2.51
                            36 2.90  56 2.90  32 2.90  35 2.90   6 2.90  26 2.90
  32  0.200  0.200  0.200- 157 2.51 152 2.51 156 2.51 132 2.51 131 2.51 127 2.51 151 2.51 126 2.51
                            57 2.90  33 2.90  37 2.90  31 2.90   7 2.90  27 2.90
  33  0.200  0.200  0.400- 157 2.51 158 2.51 152 2.51 153 2.51 132 2.51 133 2.51 127 2.51 128 2.51
                            58 2.90  32 2.90  38 2.90   8 2.90  34 2.90  28 2.90
  34  0.200  0.200  0.600- 158 2.51 159 2.51 153 2.51 154 2.51 133 2.51 134 2.51 128 2.51 129 2.51
                            59 2.90  35 2.90  39 2.90  33 2.90   9 2.90  29 2.90
  35  0.200  0.200  0.800- 159 2.51 154 2.51 134 2.51 160 2.51 155 2.51 135 2.51 129 2.51 130 2.51
                            60 2.90  34 2.90  40 2.90  31 2.90  10 2.90  30 2.90
  36  0.200  0.400  0.000- 156 2.51 160 2.51 161 2.51 165 2.51 131 2.51 135 2.51 136 2.51 140 2.51
                            31 2.90  61 2.90  37 2.90  40 2.90  41 2.90  11 2.90
  37  0.200  0.400  0.200- 157 2.51 162 2.51 156 2.51 132 2.51 161 2.51 137 2.51 136 2.51 131 2.51
                            62 2.90  32 2.90  38 2.90  36 2.90  12 2.90  42 2.90
  38  0.200  0.400  0.400- 157 2.51 158 2.51 162 2.51 163 2.51 132 2.51 133 2.51 137 2.51 138 2.51
                            63 2.90  33 2.90  37 2.90  13 2.90  39 2.90  43 2.90
  39  0.200  0.400  0.600- 158 2.51 159 2.51 163 2.51 164 2.51 133 2.51 134 2.51 138 2.51 139 2.51
                            64 2.90  34 2.90  40 2.90  38 2.90  14 2.90  44 2.90
  40  0.200  0.400  0.800- 159 2.51 164 2.51 134 2.51 160 2.51 139 2.51 165 2.51 135 2.51 140 2.51
                            65 2.90  35 2.90  39 2.90  36 2.90  15 2.90  45 2.90
  41  0.200  0.600  0.000- 161 2.51 165 2.51 166 2.51 170 2.51 136 2.51 140 2.51 141 2.51 145 2.51
                            46 2.90  66 2.90  42 2.90  45 2.90  16 2.90  36 2.90
  42  0.200  0.600  0.200- 162 2.51 167 2.51 161 2.51 137 2.51 166 2.51 142 2.51 141 2.51 136 2.51
                            67 2.90  43 2.90  47 2.90  41 2.90  17 2.90  37 2.90
  43  0.200  0.600  0.400- 162 2.51 163 2.51 167 2.51 168 2.51 137 2.51 138 2.51 142 2.51 143 2.51
                            68 2.90  42 2.90  48 2.90  18 2.90  44 2.90  38 2.90
  44  0.200  0.600  0.600- 163 2.51 164 2.51 168 2.51 169 2.51 138 2.51 139 2.51 143 2.51 144 2.51
                            69 2.90  45 2.90  49 2.90  43 2.90  19 2.90  39 2.90
  45  0.200  0.600  0.800- 164 2.51 169 2.51 139 2.51 165 2.51 144 2.51 170 2.51 140 2.51 145 2.51
                            70 2.90  44 2.90  50 2.90  41 2.90  20 2.90  40 2.90
  46  0.200  0.800  0.000- 166 2.51 170 2.51 141 2.51 145 2.51 171 2.51 175 2.51 146 2.51 150 2.51
                            41 2.90  71 2.90  21 2.90  47 2.90  50 2.90  26 2.90
  47  0.200  0.800  0.200- 167 2.51 166 2.51 142 2.51 172 2.51 147 2.51 171 2.51 141 2.51 146 2.51
                            72 2.90  42 2.90  48 2.90  22 2.90  46 2.90  27 2.90
  48  0.200  0.800  0.400- 167 2.51 168 2.51 142 2.51 143 2.51 172 2.51 173 2.51 147 2.51 148 2.51
                            73 2.90  43 2.90  47 2.90  23 2.90  28 2.90  49 2.90
  49  0.200  0.800  0.600- 168 2.51 169 2.51 143 2.51 144 2.51 173 2.51 174 2.51 148 2.51 149 2.51
[...]
     0.000000000  0.000000000 14.500000000     0.000000000  0.000000000  0.068965517

  length of vectors
    14.500000000 14.500000000 14.500000000     0.068965517  0.068965517  0.068965517

 FORCES acting on ions
    electron-ion (+dipol)            ewald-force                    non-local-force                 convergence-correction
   0.101E-13 0.161E-12 -.704E-13   -.490E-12 -.107E-12 0.284E-13   0.163E-20 0.205E-21 -.276E-19   0.126E-11 0.128E-11 -.743E-12
   0.174E-13 0.108E-12 0.473E-03   -.731E-12 0.622E-14 -.445E-10   0.179E-21 0.946E-21 0.313E-19   0.194E-11 0.132E-11 -.237E-05
   0.249E-13 0.107E-12 -.926E-03   -.942E-12 -.546E-13 -.423E-10   0.181E-20 0.212E-21 0.127E-20   0.146E-11 0.830E-12 0.263E-04
   0.265E-13 0.120E-12 0.926E-03   -.777E-12 -.266E-14 0.631E-10   0.778E-21 0.199E-20 0.218E-19   0.556E-12 0.545E-12 -.263E-04
   0.250E-13 0.157E-12 -.473E-03   -.512E-12 -.853E-13 0.238E-10   0.103E-20 -.117E-20 -.362E-19   0.246E-12 0.824E-12 0.237E-05
   0.206E-13 0.473E-03 -.264E-07   -.209E-12 -.446E-10 -.151E-13   0.142E-20 0.341E-20 0.597E-19   0.872E-12 -.237E-05 -.299E-12
   0.487E-13 0.835E-03 0.835E-03   0.218E-13 -.500E-10 -.443E-10   0.179E-21 0.213E-20 -.890E-20   0.148E-11 -.369E-05 -.369E-05
   0.340E-13 0.617E-03 -.158E-02   -.176E-12 -.392E-10 -.374E-10   0.996E-21 0.677E-20 0.136E-20   0.129E-11 -.440E-05 0.265E-04
   0.482E-13 0.617E-03 0.158E-02   -.302E-12 -.393E-10 0.581E-10   0.357E-21 0.382E-20 0.142E-20   0.603E-12 -.440E-05 -.265E-04
   0.547E-13 0.835E-03 -.835E-03   -.329E-13 -.500E-10 0.235E-10   0.169E-20 0.611E-20 0.544E-19   0.176E-12 -.369E-05 0.369E-05
   0.347E-13 -.926E-03 -.163E-07   -.473E-12 -.373E-10 0.200E-13   0.146E-20 -.126E-19 0.139E-19   0.811E-12 0.263E-04 0.206E-13
   0.416E-13 -.158E-02 0.617E-03   -.176E-12 -.433E-10 -.452E-10   0.263E-20 -.133E-19 -.246E-19   0.131E-11 0.265E-04 -.440E-05
   0.519E-13 -.121E-02 -.121E-02   -.611E-12 -.315E-10 -.368E-10   0.182E-20 -.127E-19 -.275E-20   0.122E-11 0.261E-04 0.261E-04
   0.416E-13 -.121E-02 0.121E-02   -.369E-12 -.314E-10 0.575E-10   0.134E-20 -.133E-19 -.177E-19   0.717E-12 0.261E-04 -.261E-04
   0.597E-13 -.158E-02 -.617E-03   -.264E-12 -.432E-10 0.244E-10   0.930E-21 -.111E-19 0.324E-19   0.323E-12 0.265E-04 0.440E-05
   0.474E-13 0.926E-03 0.163E-07   -.314E-12 0.569E-10 -.213E-13   0.182E-20 0.126E-20 -.100E-18   0.122E-11 -.263E-04 -.258E-12
   0.326E-13 0.158E-02 0.617E-03   -.413E-12 0.515E-10 -.461E-10   0.701E-21 0.999E-21 0.339E-19   0.170E-11 -.265E-04 -.440E-05
   0.349E-13 0.121E-02 -.121E-02   -.726E-12 0.622E-10 -.362E-10   0.649E-21 -.430E-21 -.801E-21   0.137E-11 -.261E-04 0.261E-04
   0.235E-13 0.121E-02 0.121E-02   -.569E-12 0.623E-10 0.570E-10   0.194E-20 0.222E-21 0.243E-19   0.761E-12 -.261E-04 -.261E-04
   0.417E-13 0.158E-02 -.617E-03   -.448E-12 0.516E-10 0.253E-10   0.128E-20 -.576E-21 -.952E-19   0.572E-12 -.265E-04 0.440E-05
   0.676E-14 -.473E-03 0.264E-07   -.178E-12 0.249E-10 0.284E-13   0.127E-20 0.106E-20 -.210E-19   0.149E-11 0.237E-05 -.708E-12
   0.574E-14 -.835E-03 0.835E-03   -.245E-12 0.251E-10 -.458E-10   0.128E-20 0.804E-21 0.211E-19   0.207E-11 0.369E-05 -.369E-05
   0.400E-13 -.617E-03 -.158E-02   -.465E-12 0.250E-10 -.311E-10   0.171E-20 0.256E-20 0.327E-20   0.149E-11 0.440E-05 0.265E-04
   0.308E-13 -.617E-03 0.158E-02   -.527E-12 0.251E-10 0.519E-10   0.172E-20 -.407E-20 0.110E-19   0.653E-12 0.440E-05 -.265E-04
   0.163E-14 -.835E-03 -.835E-03   -.185E-12 0.251E-10 0.250E-10   0.221E-20 0.127E-20 -.932E-20   0.526E-12 0.369E-05 0.369E-05
   0.473E-03 0.120E-12 -.264E-07   -.443E-10 -.108E-12 -.888E-14   -.758E-21 0.189E-20 -.363E-19   -.237E-05 0.111E-11 0.222E-12
   0.835E-03 0.769E-13 0.835E-03   -.535E-10 -.182E-12 -.478E-10   -.940E-21 0.380E-20 0.440E-19   -.369E-05 0.110E-11 -.369E-05
   0.617E-03 0.735E-13 -.158E-02   -.356E-10 -.391E-13 -.326E-10   -.450E-21 -.204E-20 -.351E-20   -.440E-05 0.747E-12 0.265E-04
   0.617E-03 0.736E-13 0.158E-02   -.355E-10 -.142E-13 0.534E-10   -.519E-21 0.334E-20 0.505E-19   -.440E-05 0.543E-12 -.265E-04
   0.835E-03 0.153E-12 -.835E-03   -.535E-10 -.400E-13 0.270E-10   -.545E-21 0.577E-20 -.450E-19   -.369E-05 0.757E-12 0.369E-05
   0.835E-03 0.835E-03 -.585E-08   -.538E-10 -.478E-10 0.400E-14   -.166E-20 0.486E-20 0.812E-19   -.369E-05 -.369E-05 0.495E-12
   0.897E-03 0.897E-03 0.897E-03   -.628E-10 -.531E-10 -.475E-10   -.130E-20 0.393E-20 -.320E-20   -.511E-05 -.511E-05 -.511E-05
   0.885E-03 0.885E-03 -.149E-02   -.448E-10 -.425E-10 -.276E-10   -.114E-20 0.345E-20 -.131E-19   -.629E-05 -.629E-05 0.264E-04
   0.885E-03 0.885E-03 0.149E-02   -.448E-10 -.425E-10 0.484E-10   -.993E-21 0.147E-20 0.502E-20   -.629E-05 -.629E-05 -.264E-04
   0.897E-03 0.897E-03 -.897E-03   -.629E-10 -.532E-10 0.267E-10   -.115E-20 0.206E-20 0.691E-19   -.511E-05 -.511E-05 0.511E-05
   0.617E-03 -.158E-02 -.416E-07   -.358E-10 -.276E-10 -.231E-13   0.331E-21 0.241E-20 0.497E-19   -.440E-05 0.265E-04 0.619E-12
   0.885E-03 -.149E-02 0.885E-03   -.446E-10 -.336E-10 -.483E-10   0.314E-22 0.318E-20 -.273E-19   -.629E-05 0.264E-04 -.629E-05
   0.751E-03 -.150E-02 -.150E-02   -.267E-10 -.218E-10 -.270E-10   0.379E-21 0.273E-20 -.238E-20   -.805E-05 0.258E-04 0.258E-04
   0.751E-03 -.150E-02 0.150E-02   -.266E-10 -.217E-10 0.478E-10   0.610E-21 0.268E-20 -.167E-19   -.805E-05 0.258E-04 -.258E-04
   0.885E-03 -.149E-02 -.885E-03   -.447E-10 -.335E-10 0.275E-10   0.539E-21 0.504E-20 0.376E-19   -.629E-05 0.264E-04 0.629E-05
   0.617E-03 0.158E-02 -.380E-07   -.357E-10 0.472E-10 -.240E-13   0.662E-21 -.867E-21 -.815E-19   -.440E-05 -.265E-04 0.368E-12
   0.885E-03 0.149E-02 0.885E-03   -.450E-10 0.418E-10 -.493E-10   0.475E-21 -.242E-20 0.264E-19   -.629E-05 -.264E-04 -.629E-05
   0.751E-03 0.150E-02 -.150E-02   -.265E-10 0.525E-10 -.264E-10   0.136E-21 0.602E-21 0.218E-20   -.805E-05 -.258E-04 0.258E-04
   0.751E-03 0.150E-02 0.150E-02   -.264E-10 0.525E-10 0.472E-10   0.463E-21 -.471E-20 0.240E-19   -.805E-05 -.258E-04 -.258E-04
   0.885E-03 0.149E-02 -.885E-03   -.449E-10 0.418E-10 0.284E-10   0.116E-21 -.129E-20 -.631E-19   -.629E-05 -.264E-04 0.629E-05
   0.835E-03 -.835E-03 0.652E-11   -.538E-10 0.281E-10 0.178E-13   0.795E-21 -.446E-20 0.131E-19   -.369E-05 0.369E-05 0.187E-12
   0.897E-03 -.897E-03 0.897E-03   -.631E-10 0.282E-10 -.490E-10   0.708E-21 -.582E-21 0.106E-19   -.511E-05 0.511E-05 -.511E-05
   0.885E-03 -.885E-03 -.149E-02   -.446E-10 0.282E-10 -.214E-10   0.778E-21 -.970E-21 0.785E-20   -.629E-05 0.629E-05 0.264E-04
   0.885E-03 -.885E-03 0.149E-02   -.445E-10 0.282E-10 0.421E-10   0.732E-21 -.595E-21 0.164E-19   -.629E-05 0.629E-05 -.264E-04
   0.897E-03 -.897E-03 -.897E-03   -.632E-10 0.282E-10 0.282E-10   0.136E-20 0.101E-20 0.146E-19   -.511E-05 0.511E-05 0.511E-05
   -.926E-03 0.271E-12 -.163E-07   -.318E-10 0.151E-13 0.364E-13   0.169E-20 -.921E-20 -.253E-20   0.263E-04 0.131E-11 0.978E-13
   -.158E-02 0.932E-13 0.617E-03   -.422E-10 -.726E-13 -.509E-10   0.907E-21 -.618E-20 0.190E-19   0.265E-04 0.123E-11 -.440E-05
   -.121E-02 0.973E-13 -.121E-02   -.214E-10 0.683E-13 -.306E-10   0.164E-20 -.693E-20 -.321E-20   0.261E-04 0.776E-12 0.261E-04
   -.121E-02 0.105E-12 0.121E-02   -.216E-10 -.306E-13 0.514E-10   0.169E-20 -.557E-20 0.249E-19   0.261E-04 0.578E-12 -.261E-04
   -.158E-02 0.197E-12 -.617E-03   -.423E-10 0.888E-14 0.301E-10   0.103E-20 -.710E-20 -.445E-20   0.265E-04 0.911E-12 0.440E-05
   -.158E-02 0.617E-03 -.416E-07   -.426E-10 -.509E-10 0.600E-14   -.121E-21 0.639E-20 0.776E-19   0.265E-04 -.440E-05 0.401E-12
   -.149E-02 0.885E-03 0.885E-03   -.531E-10 -.563E-10 -.506E-10   0.382E-21 0.107E-19 -.132E-19   0.264E-04 -.629E-05 -.629E-05
   -.150E-02 0.751E-03 -.150E-02   -.321E-10 -.456E-10 -.256E-10   -.149E-21 0.799E-20 -.236E-19   0.258E-04 -.805E-05 0.258E-04
   -.150E-02 0.751E-03 0.150E-02   -.322E-10 -.456E-10 0.464E-10   0.104E-20 0.790E-20 -.213E-19   0.258E-04 -.805E-05 -.258E-04
   -.149E-02 0.885E-03 -.885E-03   -.532E-10 -.563E-10 0.298E-10   0.428E-21 0.825E-20 0.587E-19   0.264E-04 -.629E-05 0.629E-05
[...]
   -.393E-03 0.105E-12 -.274E-03   0.129E-12 -.473E-12 -.348E-11   0.641E-22 -.406E-21 -.159E-20   0.376E-05 -.335E-12 0.508E-05
   -.462E-03 0.399E-12 -.719E-09   0.252E-13 0.979E-13 0.433E-14   -.116E-22 -.178E-21 -.151E-20   0.390E-05 -.188E-12 0.192E-14
   -.393E-03 0.359E-13 0.274E-03   0.866E-13 -.471E-12 0.910E-12   0.341E-22 -.291E-21 -.780E-21   0.376E-05 -.222E-12 -.508E-05
   -.410E-03 0.121E-12 -.410E-03   -.298E-13 0.529E-12 -.403E-12   -.174E-22 -.218E-21 -.104E-20   0.327E-05 -.361E-12 0.327E-05
   -.346E-03 0.252E-03 0.346E-03   0.846E-14 0.886E-12 0.298E-11   0.137E-21 -.404E-21 0.480E-21   0.324E-05 -.543E-05 -.324E-05
   -.296E-03 0.233E-03 -.233E-03   0.139E-12 -.103E-12 -.333E-11   0.790E-22 -.532E-21 0.328E-21   0.365E-05 -.521E-05 0.521E-05
   -.393E-03 0.274E-03 0.533E-09   0.540E-13 0.382E-12 0.326E-13   0.100E-21 -.622E-21 0.834E-21   0.376E-05 -.508E-05 0.121E-12
   -.296E-03 0.233E-03 0.233E-03   0.100E-12 -.138E-12 0.751E-12   0.217E-21 -.515E-21 0.766E-21   0.365E-05 -.521E-05 -.521E-05
   -.346E-03 0.252E-03 -.346E-03   -.453E-13 0.883E-12 -.331E-12   0.174E-21 -.728E-22 -.798E-21   0.324E-05 -.543E-05 0.324E-05
   -.373E-03 -.373E-03 0.373E-03   0.657E-13 0.174E-12 0.253E-11   0.791E-22 -.565E-21 -.980E-21   0.291E-05 0.291E-05 -.291E-05
   -.346E-03 -.346E-03 -.252E-03   0.107E-12 0.108E-12 -.343E-11   0.111E-21 -.576E-21 -.294E-21   0.324E-05 0.324E-05 0.543E-05
   -.410E-03 -.410E-03 0.686E-09   0.102E-13 0.132E-12 0.888E-14   0.855E-22 -.589E-21 -.424E-21   0.327E-05 0.327E-05 0.214E-12
   -.346E-03 -.346E-03 0.252E-03   0.969E-13 0.115E-12 0.858E-12   0.121E-21 -.475E-21 -.543E-21   0.324E-05 0.324E-05 -.543E-05
   -.373E-03 -.373E-03 -.373E-03   0.119E-12 0.121E-12 0.105E-12   0.113E-21 -.664E-21 0.976E-22   0.291E-05 0.291E-05 0.291E-05
   0.510E-10 0.622E-10 0.599E-09   -.167E-11 0.122E-11 0.779E-12   0.321E-19 0.872E-19 -.213E-18   -.321E-11 -.509E-11 -.300E-11

 POSITION                                       TOTAL-FORCE (eV/Angst)
      0.00000      0.00000      0.00000        -0.000000      0.000000     -0.000000
      0.00000      0.00000      2.90000        -0.000000      0.000000      0.000000
      0.00000      0.00000      5.80000        -0.000000      0.000000     -0.000000
      0.00000      0.00000      8.70000        -0.000000      0.000000      0.000000
      0.00000      0.00000     11.60000        -0.000000      0.000000     -0.000000
      0.00000      2.90000      0.00000        -0.000000     -0.000000     -0.000000
      0.00000      2.90000      2.90000        -0.000000     -0.000000      0.000000
      0.00000      2.90000      5.80000        -0.000000     -0.000000      0.000000
      0.00000      2.90000      8.70000        -0.000000     -0.000000      0.000000
      0.00000      2.90000     11.60000        -0.000000     -0.000000      0.000000
      0.00000      5.80000      0.00000        -0.000000     -0.000000     -0.000000
      0.00000      5.80000      2.90000        -0.000000     -0.000000      0.000000
      0.00000      5.80000      5.80000        -0.000000     -0.000000     -0.000000
      0.00000      5.80000      8.70000        -0.000000     -0.000000      0.000000
      0.00000      5.80000     11.60000        -0.000000     -0.000000     -0.000000
      0.00000      8.70000      0.00000        -0.000000     -0.000000      0.000000
      0.00000      8.70000      2.90000        -0.000000     -0.000000     -0.000000
      0.00000      8.70000      5.80000        -0.000000     -0.000000     -0.000000
      0.00000      8.70000      8.70000        -0.000000     -0.000000     -0.000000
      0.00000      8.70000     11.60000        -0.000000     -0.000000      0.000000
      0.00000     11.60000      0.00000        -0.000000      0.000000      0.000000
      0.00000     11.60000      2.90000        -0.000000      0.000000     -0.000000
      0.00000     11.60000      5.80000        -0.000000      0.000000      0.000000
      0.00000     11.60000      8.70000        -0.000000      0.000000     -0.000000
      0.00000     11.60000     11.60000        -0.000000      0.000000      0.000000
      2.90000      0.00000      0.00000        -0.000000     -0.000000     -0.000000
      2.90000      0.00000      2.90000        -0.000000     -0.000000      0.000000
      2.90000      0.00000      5.80000        -0.000000     -0.000000     -0.000000
      2.90000      0.00000      8.70000        -0.000000     -0.000000      0.000000
      2.90000      0.00000     11.60000        -0.000000     -0.000000     -0.000000
      2.90000      2.90000      0.00000        -0.000000     -0.000000     -0.000000
      2.90000      2.90000      2.90000        -0.000000     -0.000000      0.000000
      2.90000      2.90000      5.80000        -0.000000     -0.000000      0.000000
      2.90000      2.90000      8.70000        -0.000000      0.000000      0.000000
      2.90000      2.90000     11.60000        -0.000000     -0.000000     -0.000000
      2.90000      5.80000      0.00000        -0.000000     -0.000000     -0.000000
      2.90000      5.80000      2.90000        -0.000000     -0.000000     -0.000000
      2.90000      5.80000      5.80000        -0.000000     -0.000000      0.000000
      2.90000      5.80000      8.70000        -0.000000     -0.000000     -0.000000
      2.90000      5.80000     11.60000        -0.000000     -0.000000     -0.000000
      2.90000      8.70000      0.00000        -0.000000     -0.000000      0.000000
      2.90000      8.70000      2.90000        -0.000000     -0.000000     -0.000000
      2.90000      8.70000      5.80000        -0.000000      0.000000     -0.000000
      2.90000      8.70000      8.70000        -0.000000     -0.000000     -0.000000
      2.90000      8.70000     11.60000        -0.000000     -0.000000      0.000000
      2.90000     11.60000      0.00000        -0.000000     -0.000000      0.000000
      2.90000     11.60000      2.90000        -0.000000     -0.000000     -0.000000
      2.90000     11.60000      5.80000        -0.000000     -0.000000      0.000000
      2.90000     11.60000      8.70000        -0.000000     -0.000000     -0.000000
      2.90000     11.60000     11.60000        -0.000000     -0.000000     -0.000000
      5.80000      0.00000      0.00000         0.000000      0.000000     -0.000000
      5.80000      0.00000      2.90000         0.000000      0.000000      0.000000
      5.80000      0.00000      5.80000         0.000000      0.000000     -0.000000
      5.80000      0.00000      8.70000         0.000000      0.000000      0.000000
      5.80000      0.00000     11.60000         0.000000     -0.000000      0.000000
      5.80000      2.90000      0.00000         0.000000      0.000000     -0.000000
      5.80000      2.90000      2.90000         0.000000     -0.000000      0.000000
      5.80000      2.90000      5.80000         0.000000      0.000000      0.000000
      5.80000      2.90000      8.70000         0.000000      0.000000      0.000000
      5.80000      2.90000     11.60000         0.000000      0.000000     -0.000000
[...]
     13.05000      7.25000      1.45000        -0.000000     -0.000000      0.000000
     13.05000      7.25000      4.35000         0.000000     -0.000000      0.000000
     13.05000      7.25000      7.25000        -0.000000     -0.000000      0.000000
     13.05000      7.25000     10.15000        -0.000000     -0.000000      0.000000
     13.05000      7.25000     13.05000         0.000000     -0.000000     -0.000000
     13.05000     10.15000      1.45000         0.000000     -0.000000      0.000000
     13.05000     10.15000      4.35000         0.000000      0.000000      0.000000
     13.05000     10.15000      7.25000         0.000000     -0.000000      0.000000
     13.05000     10.15000     10.15000         0.000000      0.000000      0.000000
     13.05000     10.15000     13.05000         0.000000     -0.000000     -0.000000
     13.05000     13.05000      1.45000         0.000000     -0.000000      0.000000
     13.05000     13.05000      4.35000         0.000000     -0.000000     -0.000000
     13.05000     13.05000      7.25000         0.000000     -0.000000     -0.000000
     13.05000     13.05000     10.15000        -0.000000     -0.000000     -0.000000
     13.05000     13.05000     13.05000         0.000000     -0.000000     -0.000000
    total drift:                                0.000000      0.000000      0.000000

  FREE ENERGIE OF THE ION-ELECTRON SYSTEM (eV)
  free  energy   TOTEN  =     -1308.22708575 eV

  energy  without entropy=    -1308.11724184  energy(sigma->0) =    -1308.17216379