 vasp.5.4.4.18Apr17-6-g9f103f2a35 (build May 02 2017 15:33:50) complex

 executed on Intel-16.0.3.210-OMP date 2018.07.06  12:06:27

 INCAR:
 POTCAR:    PAW Al_GW 19Mar2012

 POTCAR:    PAW Al_GW 19Mar2012
   VRHFIN =Al: s2p1

   TITEL  = PAW Al_GW 19Mar2012
   POMASS =   26.982; ZVAL   =    3.000    mass and valenz
   ENMAX  =  240.300; ENMIN  =  180.225 eV

 Optimization of the real space projectors (new method)

 maximal supplied QI-value         = 18.90
 optimisation between [QCUT,QGAM] = [  8.69, 17.57] = [ 21.16, 86.49] Ry
 Optimized for a Real-space Cutoff    1.59 Angstroem

   l    n(q)    QCUT    max X(q) W(low)/X(q) W(high)/X(q)  e(spline)
   0      8     8.693    11.519    0.12E-03    0.31E-04    0.21E-06
   0      8     8.693     5.834    0.89E-04    0.32E-04    0.16E-06
   1      8     8.693    10.132    0.25E-03    0.39E-03    0.25E-06
   1      8     8.693     3.004    0.16E-03    0.27E-03    0.22E-06
   2      7     8.693     3.169    0.39E-03    0.93E-03    0.44E-06
   2      7     8.693     1.605    0.70E-04    0.91E-04    0.19E-06
  PAW Al_GW 19Mar2012                   :

 POSCAR: New structure
  positions in cartesian coordinates
 exchange correlation table for  LEXCH =        8
   RHO(1)=    0.500       N(1)  =     2000
   RHO(2)=  100.500       N(2)  =     4000

 ion  position               nearest neighbor table
   1  0.000  0.000  0.000-
   2  0.000  0.125  0.125-
   3  0.125  0.000  0.125-
   4  0.125  0.125  0.000-
   5  0.000  0.000  0.250-
   6  0.000  0.125  0.375-
   7  0.125  0.000  0.375-
   8  0.125  0.125  0.250-
   9  0.000  0.000  0.500-
  10  0.000  0.125  0.625-
  11  0.125  0.000  0.625-
  12  0.125  0.125  0.500-
  13  0.000  0.000  0.750-
  14  0.000  0.125  0.875-
  15  0.125  0.000  0.875-
  16  0.125  0.125  0.750-
  17  0.000  0.250  0.000-
  18  0.000  0.375  0.125-
  19  0.125  0.250  0.125-
  20  0.125  0.375  0.000-
  21  0.000  0.250  0.250-
  22  0.000  0.375  0.375-
  23  0.125  0.250  0.375-
  24  0.125  0.375  0.250-
  25  0.000  0.250  0.500-
  26  0.000  0.375  0.625-
  27  0.125  0.250  0.625-
  28  0.125  0.375  0.500-
  29  0.000  0.250  0.750-
  30  0.000  0.375  0.875-
  31  0.125  0.250  0.875-
  32  0.125  0.375  0.750-
  33  0.000  0.500  0.000-
  34  0.000  0.625  0.125-
  35  0.125  0.500  0.125-
  36  0.125  0.625  0.000-
  37  0.000  0.500  0.250-
  38  0.000  0.625  0.375-
  39  0.125  0.500  0.375-
  40  0.125  0.625  0.250-
  41  0.000  0.500  0.500-
  42  0.000  0.625  0.625-
  43  0.125  0.500  0.625-
  44  0.125  0.625  0.500-
  45  0.000  0.500  0.750-
  46  0.000  0.625  0.875-
  47  0.125  0.500  0.875-
  48  0.125  0.625  0.750-
  49  0.000  0.750  0.000-
  50  0.000  0.875  0.125-
  51  0.125  0.750  0.125-
  52  0.125  0.875  0.000-
  53  0.000  0.750  0.250-
  54  0.000  0.875  0.375-
  55  0.125  0.750  0.375-
  56  0.125  0.875  0.250-
  57  0.000  0.750  0.500-
  58  0.000  0.875  0.625-
  59  0.125  0.750  0.625-
  60  0.125  0.875  0.500-
[...]
 242  0.750  0.875  0.125-
 243  0.875  0.750  0.125-
 244  0.875  0.875  0.000-
 245  0.750  0.750  0.250-
 246  0.750  0.875  0.375-
 247  0.875  0.750  0.375-
 248  0.875  0.875  0.250-
 249  0.750  0.750  0.500-
 250  0.750  0.875  0.625-
 251  0.875  0.750  0.625-
 252  0.875  0.875  0.500-
 253  0.750  0.750  0.750-
 254  0.750  0.875  0.875-
 255  0.875  0.750  0.875-
 256  0.875  0.875  0.750-

  LATTYP: Found a simple cubic cell.
 ALAT       =    16.1980000000

  Lattice vectors:

 A1 = (  16.1980000000,   0.0000000000,   0.0000000000)
 A2 = (   0.0000000000,  16.1980000000,   0.0000000000)
 A3 = (   0.0000000000,   0.0000000000,  16.1980000000)

Analysis of symmetry for initial positions (statically):
 Subroutine PRICEL returns following result:

  LATTYP: Found a face centered cubic cell.
 ALAT       =     4.0495000000

[...]

 256 primitive cells build up your supercell.

 Routine SETGRP: Setting up the symmetry group for a
 simple cubic supercell.

 Subroutine GETGRP returns: Found 48 space group operations
 (whereof 48 operations were pure point group operations)
 out of a pool of 48 trial point group operations.

The static configuration has the point symmetry O_h .

Analysis of symmetry for dynamics (positions and initial velocities):
 Subroutine PRICEL returns following result:

  LATTYP: Found a face centered cubic cell.
 ALAT       =     4.0495000000

  Lattice vectors:

 A1 = (   2.0247500000,   2.0247500000,   0.0000000000)
 A2 = (   2.0247500000,   0.0000000000,  -2.0247500000)
 A3 = (   0.0000000000,   2.0247500000,  -2.0247500000)

 256 primitive cells build up your supercell.

 Routine SETGRP: Setting up the symmetry group for a
 simple cubic supercell.

 Subroutine GETGRP returns: Found 48 space group operations
 (whereof 48 operations were pure point group operations)
 out of a pool of 48 trial point group operations.

The dynamic configuration has the point symmetry O_h .

 Subroutine INISYM returns: Found 48 space group operations
 (whereof 48 operations are pure point group operations),
 and found   256 'primitive' translations

 KPOINTS: Automatic generation

Automatic generation of k-mesh.
Space group operators:
 irot       det(A)        alpha          n_x          n_y          n_z        tau_x        tau_y        tau_z
    1     1.000000     0.000000     1.000000     0.000000     0.000000     0.000000     0.000000     0.000000
    2    -1.000000     0.000000     1.000000     0.000000     0.000000     0.000000     0.000000     0.000000
    3     1.000000   120.000000    -0.577350    -0.577350    -0.577350     0.000000     0.000000     0.000000
    4    -1.000000   120.000000    -0.577350    -0.577350    -0.577350     0.000000     0.000000     0.000000
    5     1.000000   120.000000     0.577350     0.577350     0.577350     0.000000     0.000000     0.000000
    6    -1.000000   120.000000     0.577350     0.577350     0.577350     0.000000     0.000000     0.000000
    7     1.000000    90.000000     0.000000     0.000000    -1.000000     0.000000     0.000000     0.000000
    8    -1.000000    90.000000     0.000000     0.000000    -1.000000     0.000000     0.000000     0.000000
    9     1.000000   180.000000     0.000000     0.707107     0.707107     0.000000     0.000000     0.000000
   10    -1.000000   180.000000     0.000000     0.707107     0.707107     0.000000     0.000000     0.000000
   11     1.000000    90.000000     0.000000     1.000000     0.000000     0.000000     0.000000     0.000000
   12    -1.000000    90.000000     0.000000     1.000000     0.000000     0.000000     0.000000     0.000000
   13     1.000000   180.000000     0.000000     0.000000     1.000000     0.000000     0.000000     0.000000
   14    -1.000000   180.000000     0.000000     0.000000     1.000000     0.000000     0.000000     0.000000
   15     1.000000   120.000000    -0.577350     0.577350     0.577350     0.000000     0.000000     0.000000
   16    -1.000000   120.000000    -0.577350     0.577350     0.577350     0.000000     0.000000     0.000000
   17     1.000000   120.000000    -0.577350     0.577350    -0.577350     0.000000     0.000000     0.000000
   18    -1.000000   120.000000    -0.577350     0.577350    -0.577350     0.000000     0.000000     0.000000
   19     1.000000    90.000000     0.000000     0.000000     1.000000     0.000000     0.000000     0.000000
   20    -1.000000    90.000000     0.000000     0.000000     1.000000     0.000000     0.000000     0.000000
   21     1.000000    90.000000    -1.000000     0.000000     0.000000     0.000000     0.000000     0.000000
   22    -1.000000    90.000000    -1.000000     0.000000     0.000000     0.000000     0.000000     0.000000
   23     1.000000   180.000000     0.707107     0.000000     0.707107     0.000000     0.000000     0.000000
   24    -1.000000   180.000000     0.707107     0.000000     0.707107     0.000000     0.000000     0.000000
   25     1.000000   120.000000     0.577350    -0.577350     0.577350     0.000000     0.000000     0.000000
   26    -1.000000   120.000000     0.577350    -0.577350     0.577350     0.000000     0.000000     0.000000
   27     1.000000   120.000000    -0.577350    -0.577350     0.577350     0.000000     0.000000     0.000000
   28    -1.000000   120.000000    -0.577350    -0.577350     0.577350     0.000000     0.000000     0.000000
   29     1.000000   180.000000     1.000000     0.000000     0.000000     0.000000     0.000000     0.000000
   30    -1.000000   180.000000     1.000000     0.000000     0.000000     0.000000     0.000000     0.000000
   31     1.000000    90.000000     0.000000    -1.000000     0.000000     0.000000     0.000000     0.000000
   32    -1.000000    90.000000     0.000000    -1.000000     0.000000     0.000000     0.000000     0.000000
   33     1.000000   180.000000     0.707107     0.707107     0.000000     0.000000     0.000000     0.000000
   34    -1.000000   180.000000     0.707107     0.707107     0.000000     0.000000     0.000000     0.000000
   35     1.000000    90.000000     1.000000     0.000000     0.000000     0.000000     0.000000     0.000000
   36    -1.000000    90.000000     1.000000     0.000000     0.000000     0.000000     0.000000     0.000000
   37     1.000000   120.000000     0.577350    -0.577350    -0.577350     0.000000     0.000000     0.000000
   38    -1.000000   120.000000     0.577350    -0.577350    -0.577350     0.000000     0.000000     0.000000
   39     1.000000   180.000000     0.000000     1.000000     0.000000     0.000000     0.000000     0.000000
   40    -1.000000   180.000000     0.000000     1.000000     0.000000     0.000000     0.000000     0.000000
   41     1.000000   120.000000     0.577350     0.577350    -0.577350     0.000000     0.000000     0.000000
   42    -1.000000   120.000000     0.577350     0.577350    -0.577350     0.000000     0.000000     0.000000
   43     1.000000   180.000000     0.000000    -0.707107     0.707107     0.000000     0.000000     0.000000
   44    -1.000000   180.000000     0.000000    -0.707107     0.707107     0.000000     0.000000     0.000000
   45     1.000000   180.000000     0.707107    -0.707107     0.000000     0.000000     0.000000     0.000000
   46    -1.000000   180.000000     0.707107    -0.707107     0.000000     0.000000     0.000000     0.000000
   47     1.000000   180.000000     0.707107     0.000000    -0.707107     0.000000     0.000000     0.000000
   48    -1.000000   180.000000     0.707107     0.000000    -0.707107     0.000000     0.000000     0.000000

 Subroutine IBZKPT returns following result:

 Found      4 irreducible k-points:

 Following reciprocal coordinates:
            Coordinates               Weight
  0.000000  0.000000  0.000000      1.000000
  0.500000  0.000000  0.000000      3.000000
  0.500000  0.500000  0.000000      3.000000
  0.500000  0.500000  0.500000      1.000000

 Following cartesian coordinates:
            Coordinates               Weight
  0.000000  0.000000  0.000000      1.000000
  0.030868  0.000000  0.000000      3.000000
  0.030868  0.030868  0.000000      3.000000
  0.030868  0.030868  0.030868      1.000000

 SYSTEM =  NiAl
[...]
     0.000000000  0.000000000 16.198000000     0.000000000  0.000000000  0.061736017

  length of vectors
    16.198000000 16.198000000 16.198000000     0.061736017  0.061736017  0.061736017

 FORCES acting on ions
    electron-ion (+dipol)            ewald-force                    non-local-force                 convergence-correction
   0.195E-13 0.147E-13 0.200E-13   -.597E-13 0.377E-13 -.133E-14   -.252E-21 -.289E-21 0.144E-20   -.921E-13 -.418E-13 -.233E-12
   0.110E-13 -.576E-14 -.298E-13   0.577E-14 0.117E-13 -.555E-14   0.437E-22 -.419E-22 -.464E-21   0.466E-13 0.318E-13 -.323E-12
   -.645E-14 -.266E-14 -.357E-13   -.510E-13 0.203E-13 -.755E-14   -.762E-22 0.792E-22 0.131E-20   0.224E-13 -.944E-13 -.147E-12
   -.702E-14 -.514E-13 0.927E-14   -.107E-12 0.777E-14 0.178E-14   0.394E-22 -.666E-22 0.206E-20   -.819E-13 0.441E-13 -.175E-12
   0.149E-13 0.755E-15 -.444E-14   -.304E-13 0.977E-14 0.643E-14   0.930E-22 -.123E-21 -.215E-20   0.562E-13 -.230E-12 -.446E-13
   0.121E-13 0.356E-14 -.618E-14   0.596E-13 0.132E-13 0.600E-14   0.293E-21 0.365E-21 -.133E-20   0.787E-13 -.294E-13 0.247E-12
   -.250E-14 -.666E-13 0.164E-13   -.557E-13 -.278E-14 0.555E-14   0.457E-21 0.249E-21 -.172E-20   0.602E-13 -.147E-12 0.148E-12
   -.523E-14 -.486E-13 -.661E-13   -.132E-12 -.877E-14 0.336E-14   0.351E-21 0.351E-21 -.201E-20   0.123E-12 0.971E-14 -.421E-13
   0.136E-13 0.474E-14 0.776E-14   -.286E-13 0.118E-13 0.000E+00   0.386E-21 0.169E-21 -.100E-20   -.101E-12 -.174E-12 0.302E-12
   0.117E-13 0.205E-14 -.221E-13   0.249E-13 0.102E-13 -.266E-14   0.109E-21 -.162E-21 0.974E-21   -.171E-12 -.351E-13 0.208E-12
   -.649E-14 -.587E-14 -.691E-14   -.107E-13 0.244E-13 0.111E-14   0.270E-21 0.364E-21 -.649E-21   -.119E-12 -.812E-13 0.937E-13
   -.655E-14 -.631E-14 -.527E-13   -.111E-12 -.600E-14 -.155E-14   0.338E-21 0.401E-21 -.160E-20   0.322E-14 -.948E-14 0.206E-12
   0.137E-13 0.740E-14 -.341E-13   -.533E-14 0.000E+00 0.124E-13   0.113E-21 -.114E-21 0.131E-20   -.173E-12 0.648E-14 -.136E-13
   0.113E-13 0.201E-13 0.117E-14   0.324E-13 0.622E-14 0.622E-14   -.264E-21 -.815E-23 0.121E-20   -.184E-12 0.332E-13 -.143E-12
   -.602E-14 -.580E-13 -.363E-13   -.417E-13 0.251E-13 0.444E-15   -.271E-21 -.334E-21 0.137E-20   -.142E-12 -.617E-14 -.105E-12
   -.735E-14 -.266E-14 -.438E-13   -.822E-13 -.178E-14 0.722E-14   -.504E-22 -.145E-21 0.858E-21   -.145E-12 0.382E-14 0.212E-13
   0.995E-14 0.440E-14 0.689E-14   0.504E-13 -.102E-13 0.266E-14   -.378E-22 0.135E-21 -.860E-21   -.115E-12 0.891E-13 -.237E-12
   0.119E-13 -.159E-14 -.162E-13   0.123E-13 0.283E-14 -.222E-14   0.302E-21 0.177E-21 -.281E-20   -.943E-13 0.231E-12 -.222E-12
   -.788E-14 -.541E-13 -.647E-13   -.149E-12 -.214E-13 -.115E-13   0.370E-21 0.285E-21 -.523E-21   0.181E-13 0.120E-12 -.184E-12
   -.871E-14 -.378E-13 0.617E-14   -.812E-13 -.108E-13 -.555E-14   0.300E-21 0.203E-21 -.186E-20   -.631E-13 0.688E-13 -.889E-13
   0.107E-13 0.497E-14 0.484E-15   0.883E-13 -.799E-14 -.157E-14   0.255E-21 0.242E-21 -.126E-20   0.108E-12 0.198E-12 -.103E-12
   0.129E-13 -.166E-13 -.140E-13   0.139E-13 -.477E-14 -.444E-14   -.209E-21 -.117E-21 0.194E-20   0.212E-13 0.254E-12 0.136E-12
   -.828E-14 -.176E-13 -.970E-14   -.127E-12 -.190E-13 0.344E-14   0.316E-21 0.264E-21 -.165E-20   0.911E-13 0.116E-12 0.130E-12
   -.668E-14 0.347E-13 -.564E-13   -.774E-13 -.612E-14 0.254E-14   0.521E-22 0.367E-22 -.152E-20   0.220E-13 0.171E-12 -.512E-13
   0.123E-13 -.549E-14 -.496E-14   0.805E-13 -.133E-14 0.777E-15   -.163E-21 -.285E-22 0.137E-20   -.354E-13 0.906E-13 0.299E-12
   0.135E-13 -.319E-14 -.300E-13   0.444E-14 0.224E-13 -.222E-14   -.550E-21 -.167E-21 0.131E-20   -.129E-12 0.866E-13 0.115E-12
   -.718E-14 -.361E-13 -.650E-13   -.724E-13 -.400E-14 0.755E-14   -.182E-21 -.140E-21 0.210E-21   -.549E-13 0.571E-13 0.108E-12
   -.816E-14 -.354E-13 -.198E-13   -.349E-13 0.286E-14 -.500E-14   -.483E-21 -.119E-21 0.113E-20   -.924E-14 0.133E-12 0.154E-12
   0.102E-13 0.180E-14 -.219E-13   0.109E-12 0.200E-14 0.134E-13   -.166E-21 -.872E-22 0.563E-21   -.212E-12 -.158E-13 0.524E-13
   0.127E-13 -.100E-13 -.172E-13   0.545E-13 0.218E-13 -.777E-15   0.164E-21 0.334E-22 -.437E-21   -.205E-12 0.366E-13 -.411E-13
   -.102E-13 0.376E-13 -.620E-14   -.104E-12 0.115E-13 0.722E-14   -.343E-21 0.103E-21 0.184E-20   -.104E-12 0.332E-13 -.641E-13
   -.783E-14 0.444E-13 -.159E-13   -.120E-13 0.936E-14 0.378E-14   -.110E-21 -.674E-22 0.160E-20   -.629E-13 0.499E-13 -.422E-14
   0.108E-13 0.429E-14 0.818E-14   -.242E-13 0.133E-14 0.233E-14   0.187E-21 0.341E-21 -.206E-20   -.266E-12 0.865E-13 -.346E-13
   0.124E-13 -.388E-15 -.242E-13   -.647E-13 -.699E-14 -.600E-14   -.716E-22 -.192E-22 0.191E-20   -.284E-12 -.156E-14 -.659E-13
   -.671E-14 0.296E-13 -.706E-13   -.655E-14 -.102E-13 -.112E-13   0.212E-21 0.400E-22 -.217E-20   -.845E-13 0.843E-13 -.773E-13
   -.617E-14 0.226E-13 0.293E-13   0.795E-13 -.488E-14 -.444E-14   0.269E-21 0.210E-22 -.119E-20   -.104E-12 -.120E-13 -.245E-13
   0.116E-13 -.128E-13 -.106E-13   -.944E-15 0.144E-14 -.201E-14   -.366E-23 -.976E-22 0.145E-20   -.120E-12 0.229E-12 -.839E-13
   0.132E-13 -.119E-13 -.691E-14   -.590E-13 0.433E-14 -.444E-15   -.420E-21 -.334E-21 0.346E-21   -.139E-12 0.653E-13 0.649E-13
   -.596E-14 -.596E-13 -.124E-13   0.485E-13 -.103E-13 0.344E-14   -.539E-21 -.196E-21 0.548E-21   -.572E-13 0.140E-12 0.884E-13
   -.596E-14 -.182E-13 -.666E-13   0.479E-13 -.102E-13 0.247E-14   -.368E-21 -.270E-21 0.931E-21   -.103E-12 0.199E-13 0.280E-14
   0.129E-13 0.143E-13 0.203E-13   -.404E-13 0.191E-13 0.122E-14   -.364E-21 -.156E-21 0.188E-22   -.833E-13 0.161E-12 0.131E-12
   0.111E-13 0.243E-13 0.120E-15   -.890E-13 0.258E-13 -.200E-14   0.595E-22 0.273E-21 -.133E-20   -.120E-12 0.341E-13 0.869E-16
   -.512E-14 0.359E-14 -.211E-13   0.651E-13 -.666E-15 0.722E-14   -.320E-22 -.133E-21 0.162E-20   -.681E-13 0.743E-13 0.222E-13
   -.728E-14 0.190E-13 -.204E-13   0.870E-13 0.151E-13 -.533E-14   -.245E-21 0.602E-22 0.763E-21   -.107E-12 0.374E-13 0.887E-13
   0.140E-13 0.238E-14 0.981E-15   -.140E-13 0.151E-13 0.131E-13   0.109E-21 0.154E-21 -.766E-21   -.176E-12 0.520E-13 -.987E-15
   0.132E-13 0.164E-13 -.293E-13   -.611E-13 0.173E-13 -.888E-15   0.308E-21 0.203E-21 -.164E-20   -.232E-12 -.277E-13 -.100E-13
   -.607E-14 -.865E-13 -.401E-14   0.477E-13 0.147E-13 0.711E-14   0.552E-21 0.102E-21 -.122E-20   -.839E-13 0.241E-13 -.439E-13
   -.710E-14 -.139E-13 0.102E-13   0.121E-12 0.244E-13 0.377E-14   0.471E-21 0.549E-22 -.113E-20   -.103E-12 -.351E-14 -.567E-13
   0.152E-13 -.285E-13 0.100E-13   -.258E-13 0.622E-14 0.222E-14   0.658E-22 0.723E-24 0.162E-20   -.231E-12 -.133E-12 -.142E-13
   0.145E-13 0.896E-14 -.105E-14   0.131E-13 0.533E-14 -.577E-14   -.189E-21 -.140E-21 0.223E-21   -.132E-12 -.261E-12 -.138E-12
   -.430E-14 -.822E-13 -.138E-13   0.866E-14 -.921E-14 -.111E-13   -.200E-21 -.279E-21 0.135E-20   -.799E-13 -.110E-12 -.467E-13
   -.456E-14 -.393E-13 -.146E-13   -.977E-14 -.866E-14 0.311E-14   -.137E-21 -.174E-21 0.725E-21   -.740E-13 -.100E-12 -.866E-13
   0.132E-13 -.159E-13 -.656E-14   0.203E-13 -.644E-14 -.268E-14   -.419E-21 -.839E-22 0.126E-20   -.194E-12 -.196E-12 -.187E-13
   0.157E-13 -.156E-13 -.819E-14   0.223E-13 -.455E-14 -.888E-15   0.148E-21 0.128E-21 -.180E-20   -.809E-13 -.290E-12 0.188E-12
   -.492E-14 0.358E-13 -.287E-14   0.142E-13 0.888E-15 0.311E-14   0.757E-23 0.556E-22 0.167E-20   -.846E-13 -.109E-12 0.109E-12
   -.283E-14 0.138E-13 0.600E-14   -.673E-13 -.180E-13 0.675E-15   0.972E-22 -.128E-21 0.150E-20   0.140E-13 -.200E-12 0.536E-14
   0.145E-13 0.784E-14 0.796E-14   0.195E-13 0.444E-14 0.222E-14   0.459E-22 0.131E-21 -.197E-20   -.126E-12 -.771E-13 0.105E-12
   0.124E-13 -.218E-13 -.163E-14   -.213E-13 0.667E-15 -.178E-14   0.312E-21 0.460E-22 -.542E-21   -.146E-12 -.856E-13 0.382E-13
   -.474E-14 -.462E-14 -.204E-13   0.488E-13 0.488E-14 0.600E-14   0.377E-21 0.201E-21 -.230E-20   -.128E-12 -.512E-13 -.153E-13
   -.570E-14 0.245E-13 -.178E-13   -.226E-13 0.133E-14 0.178E-14   0.346E-21 0.255E-21 -.135E-20   -.921E-13 -.160E-12 0.144E-12
[...]
   -.204E-13 0.402E-12 0.232E-12   -.224E-13 -.192E-13 -.149E-13   -.335E-21 -.632E-22 0.288E-20   -.305E-12 -.242E-12 -.105E-12
   -.222E-13 0.380E-12 0.138E-12   0.284E-13 -.888E-14 0.355E-14   -.265E-21 -.117E-21 0.218E-20   -.226E-12 -.243E-12 -.681E-13
   -.110E-13 -.162E-13 -.330E-12   0.648E-13 -.644E-14 0.399E-14   0.927E-22 0.691E-22 -.472E-21   -.530E-13 -.151E-12 -.202E-12
   -.975E-14 0.239E-12 -.470E-13   0.160E-13 -.142E-13 -.377E-14   -.919E-22 -.316E-22 -.218E-20   -.630E-13 -.276E-12 0.730E-13
   -.204E-13 -.317E-12 -.239E-12   0.511E-14 -.200E-13 0.111E-14   0.101E-22 0.113E-21 -.225E-20   -.117E-12 -.149E-12 0.447E-13
   -.191E-13 -.145E-12 -.467E-12   0.582E-13 -.196E-13 -.204E-14   -.198E-22 0.867E-22 -.329E-20   -.202E-12 -.433E-12 -.666E-13
   -.115E-13 0.194E-12 0.149E-12   0.955E-13 -.113E-13 -.577E-14   0.302E-23 0.622E-22 -.180E-20   0.106E-12 -.262E-13 0.675E-13
   -.835E-14 -.105E-12 0.220E-12   0.675E-13 -.167E-13 -.355E-14   -.126E-21 -.166E-21 0.264E-20   0.711E-13 -.644E-13 0.672E-13
   -.209E-13 0.191E-12 -.462E-12   -.258E-13 0.355E-14 0.355E-14   -.802E-22 -.334E-22 -.133E-20   -.795E-13 -.379E-13 0.252E-13
   -.205E-13 0.134E-12 -.642E-13   0.204E-13 0.644E-14 -.444E-14   -.581E-23 0.128E-21 -.920E-21   -.845E-13 -.179E-12 0.203E-12
   -.109E-13 -.782E-13 -.176E-12   0.117E-12 0.107E-13 0.710E-14   -.116E-21 -.348E-21 0.201E-20   -.643E-13 -.168E-12 0.114E-12
   -.996E-14 -.509E-13 0.155E-12   0.533E-13 -.480E-13 0.000E+00   0.925E-23 0.115E-21 0.958E-22   -.131E-12 -.197E-12 0.460E-13
   -.197E-13 0.148E-12 0.159E-14   -.373E-13 -.355E-14 0.355E-14   -.156E-22 -.230E-21 0.171E-20   -.257E-12 -.165E-12 0.241E-13
   -.231E-13 0.159E-12 -.122E-12   0.195E-13 -.160E-13 0.226E-18   0.520E-22 -.108E-21 0.173E-20   -.930E-13 -.464E-13 -.566E-13
   -.554E-12 -.167E-11 -.257E-11   0.397E-12 -.371E-12 0.142E-12   -.580E-20 0.316E-20 -.453E-20   -.169E-13 0.142E-14 -.346E-14

 POSITION                                       TOTAL-FORCE (eV/Angst)
      0.00000      0.00000      0.00000        -0.000000     -0.000000      0.000000
      0.00000      2.02475      2.02475        -0.000000      0.000000      0.000000
      2.02475      0.00000      2.02475         0.000000      0.000000     -0.000000
      2.02475      2.02475      0.00000        -0.000000     -0.000000      0.000000
      0.00000      0.00000      4.04950        -0.000000     -0.000000     -0.000000
      0.00000      2.02475      6.07425         0.000000     -0.000000      0.000000
      2.02475      0.00000      6.07425        -0.000000     -0.000000      0.000000
      2.02475      2.02475      4.04950        -0.000000     -0.000000     -0.000000
      0.00000      0.00000      8.09900         0.000000     -0.000000      0.000000
      0.00000      2.02475     10.12375         0.000000     -0.000000     -0.000000
      2.02475      0.00000     10.12375        -0.000000      0.000000      0.000000
      2.02475      2.02475      8.09900         0.000000     -0.000000      0.000000
      0.00000      0.00000     12.14850         0.000000      0.000000     -0.000000
      0.00000      2.02475     14.17325        -0.000000      0.000000     -0.000000
      2.02475      0.00000     14.17325        -0.000000     -0.000000     -0.000000
      2.02475      2.02475     12.14850        -0.000000      0.000000     -0.000000
      0.00000      4.04950      0.00000        -0.000000      0.000000      0.000000
      0.00000      6.07425      2.02475        -0.000000      0.000000      0.000000
      2.02475      4.04950      2.02475        -0.000000      0.000000     -0.000000
      2.02475      6.07425      0.00000        -0.000000      0.000000      0.000000
      0.00000      4.04950      4.04950        -0.000000     -0.000000      0.000000
      0.00000      6.07425      6.07425        -0.000000     -0.000000     -0.000000
      2.02475      4.04950      6.07425         0.000000     -0.000000      0.000000
      2.02475      6.07425      4.04950        -0.000000     -0.000000      0.000000
      0.00000      4.04950      8.09900         0.000000      0.000000      0.000000
      0.00000      6.07425     10.12375         0.000000      0.000000     -0.000000
      2.02475      4.04950     10.12375         0.000000      0.000000     -0.000000
      2.02475      6.07425      8.09900         0.000000      0.000000      0.000000
      0.00000      4.04950     12.14850         0.000000     -0.000000     -0.000000
      0.00000      6.07425     14.17325        -0.000000     -0.000000      0.000000
      2.02475      4.04950     14.17325        -0.000000     -0.000000     -0.000000
      2.02475      6.07425     12.14850        -0.000000     -0.000000     -0.000000
      0.00000      8.09900      0.00000         0.000000     -0.000000      0.000000
      0.00000     10.12375      2.02475         0.000000     -0.000000     -0.000000
      2.02475      8.09900      2.02475         0.000000     -0.000000      0.000000
      2.02475     10.12375      0.00000         0.000000     -0.000000      0.000000
      0.00000      8.09900      4.04950        -0.000000      0.000000     -0.000000
      0.00000     10.12375      6.07425         0.000000     -0.000000      0.000000
      2.02475      8.09900      6.07425        -0.000000     -0.000000      0.000000
      2.02475     10.12375      4.04950        -0.000000      0.000000     -0.000000
      0.00000      8.09900      8.09900        -0.000000     -0.000000      0.000000
      0.00000     10.12375     10.12375         0.000000     -0.000000     -0.000000
      2.02475      8.09900     10.12375         0.000000      0.000000     -0.000000
      2.02475     10.12375      8.09900         0.000000      0.000000      0.000000
      0.00000      8.09900     12.14850         0.000000     -0.000000      0.000000
      0.00000     10.12375     14.17325         0.000000      0.000000      0.000000
      2.02475      8.09900     14.17325        -0.000000      0.000000      0.000000
      2.02475     10.12375     12.14850         0.000000      0.000000      0.000000
      0.00000     12.14850      0.00000         0.000000     -0.000000     -0.000000
      0.00000     14.17325      2.02475         0.000000      0.000000     -0.000000
      2.02475     12.14850      2.02475        -0.000000     -0.000000     -0.000000
      2.02475     14.17325      0.00000         0.000000      0.000000     -0.000000
      0.00000     12.14850      4.04950         0.000000     -0.000000     -0.000000
      0.00000     14.17325      6.07425        -0.000000      0.000000      0.000000
      2.02475     12.14850      6.07425         0.000000      0.000000      0.000000
      2.02475     14.17325      4.04950         0.000000      0.000000     -0.000000
      0.00000     12.14850      8.09900        -0.000000      0.000000     -0.000000
      0.00000     14.17325     10.12375        -0.000000      0.000000      0.000000
      2.02475     12.14850     10.12375        -0.000000      0.000000     -0.000000
      2.02475     14.17325      8.09900        -0.000000      0.000000      0.000000
[...]
     12.14850     14.17325      2.02475        -0.000000     -0.000000      0.000000
     14.17325     12.14850      2.02475         0.000000      0.000000      0.000000
     14.17325     14.17325      0.00000        -0.000000     -0.000000      0.000000
     12.14850     12.14850      4.04950         0.000000     -0.000000     -0.000000
     12.14850     14.17325      6.07425         0.000000      0.000000      0.000000
     14.17325     12.14850      6.07425        -0.000000      0.000000     -0.000000
     14.17325     14.17325      4.04950         0.000000     -0.000000     -0.000000
     12.14850     12.14850      8.09900         0.000000      0.000000      0.000000
     12.14850     14.17325     10.12375         0.000000      0.000000     -0.000000
     14.17325     12.14850     10.12375        -0.000000      0.000000      0.000000
     14.17325     14.17325      8.09900         0.000000     -0.000000      0.000000
     12.14850     12.14850     12.14850         0.000000      0.000000     -0.000000
     12.14850     14.17325     14.17325         0.000000      0.000000     -0.000000
     14.17325     12.14850     14.17325        -0.000000     -0.000000     -0.000000
     14.17325     14.17325     12.14850         0.000000      0.000000     -0.000000
    total drift:                               -0.000000     -0.000000     -0.000000

  FREE ENERGIE OF THE ION-ELECTRON SYSTEM (eV)
  free  energy   TOTEN  =      -961.02962459 eV

  energy  without entropy=     -960.82606064  energy(sigma->0) =     -960.92784261