 vasp.5.4.4.18Apr17-6-g9f103f2a35 (build Apr 28 2017 10:40:22) complex

 executed on Intel-16.0.3.210-OMP date 2018.10.24  15:47:09

 INCAR:
 POTCAR:    PAW Al_GW 19Mar2012
 POTCAR:    PAW Al_GW 19Mar2012
   VRHFIN =Al: s2p1

   TITEL  = PAW Al_GW 19Mar2012
   POMASS =   26.982; ZVAL   =    3.000    mass and valenz
   ENMAX  =  240.300; ENMIN  =  180.225 eV

 Optimization of the real space projectors (new method)

 maximal supplied QI-value         = 18.90
 optimisation between [QCUT,QGAM] = [  8.69, 17.57] = [ 21.16, 86.49] Ry
 Optimized for a Real-space Cutoff    1.59 Angstroem

   l    n(q)    QCUT    max X(q) W(low)/X(q) W(high)/X(q)  e(spline)
   0      8     8.693    11.519    0.12E-03    0.31E-04    0.21E-06
   0      8     8.693     5.834    0.89E-04    0.32E-04    0.16E-06
   1      8     8.693    10.132    0.25E-03    0.39E-03    0.25E-06
   1      8     8.693     3.004    0.16E-03    0.27E-03    0.22E-06
   2      7     8.693     3.169    0.39E-03    0.93E-03    0.44E-06
   2      7     8.693     1.605    0.70E-04    0.91E-04    0.19E-06
  PAW Al_GW 19Mar2012                   :

 POSCAR: New structure
  positions in direct lattice
 exchange correlation table for  LEXCH =        8
   RHO(1)=    0.500       N(1)  =     2000
   RHO(2)=  100.500       N(2)  =     4000

 ion  position               nearest neighbor table
   1  0.333  0.667  0.000-
   2  0.667  0.333  0.500-

  LATTYP: Found a hexagonal cell.
 ALAT       =     3.0377817386
 C/A-ratio  =     1.6173712069

  Lattice vectors:

 A1 = (   3.0377817386,   0.0000000000,   0.0000000000)
 A2 = (  -1.5188908693,   2.6307961568,   0.0000000000)
 A3 = (   0.0000000000,   0.0000000000,   4.9132207171)

Analysis of symmetry for initial positions (statically):
 Subroutine PRICEL returns:
 Original cell was already a primitive cell.

 Routine SETGRP: Setting up the symmetry group for a
 hexagonal supercell.

 Subroutine GETGRP returns: Found 24 space group operations
 (whereof 12 operations were pure point group operations)
 out of a pool of 24 trial point group operations.

The static configuration has the point symmetry D_3h.
 The point group associated with its full space group is D_6h.

Analysis of symmetry for dynamics (positions and initial velocities):
 Subroutine PRICEL returns:
 Original cell was already a primitive cell.

 Routine SETGRP: Setting up the symmetry group for a
 hexagonal supercell.

 Subroutine GETGRP returns: Found 24 space group operations
 (whereof 12 operations were pure point group operations)
 out of a pool of 24 trial point group operations.

The dynamic configuration has the point symmetry D_3h.
 The point group associated with its full space group is D_6h.

 Subroutine INISYM returns: Found 24 space group operations
 (whereof 12 operations are pure point group operations),
 and found     1 'primitive' translations

 KPOINTS: Automatic generation

Automatic generation of k-mesh.
Space group operators:
 irot       det(A)        alpha          n_x          n_y          n_z        tau_x        tau_y        tau_z
    1     1.000000     0.000000     1.000000     0.000000     0.000000     0.000000     0.000000     0.000000
    2    -1.000000    60.000000     0.000000     0.000000    -1.000000     0.000000     0.000000     0.000000
    3     1.000000   120.000000     0.000000     0.000000    -1.000000     0.000000     0.000000     0.000000
    4    -1.000000   180.000000     0.000000     0.000000     1.000000     0.000000     0.000000     0.000000
    5     1.000000   120.000000     0.000000     0.000000     1.000000     0.000000     0.000000     0.000000
    6    -1.000000    60.000000     0.000000     0.000000     1.000000     0.000000     0.000000     0.000000
    7    -1.000000   179.999999     1.000000    -0.000000     0.000000     0.000000     0.000000     0.000000
    8     1.000000   180.000000     0.866025    -0.500000     0.000000     0.000000     0.000000     0.000000
    9    -1.000000   180.000000     0.500000    -0.866025     0.000000     0.000000     0.000000     0.000000
   10     1.000000   180.000000     0.000000     1.000000     0.000000     0.000000     0.000000     0.000000
   11    -1.000000   180.000000    -0.500000    -0.866025     0.000000     0.000000     0.000000     0.000000
   12     1.000000   180.000000     0.866025     0.500000     0.000000     0.000000     0.000000     0.000000
   13    -1.000000     0.000000     1.000000     0.000000     0.000000     0.000000     0.000000     0.500000
   14     1.000000    60.000000     0.000000     0.000000    -1.000000     0.000000     0.000000     0.500000
   15    -1.000000   120.000000     0.000000     0.000000    -1.000000     0.000000     0.000000     0.500000
   16     1.000000   180.000000     0.000000     0.000000     1.000000     0.000000     0.000000     0.500000
   17    -1.000000   120.000000     0.000000     0.000000     1.000000     0.000000     0.000000     0.500000
   18     1.000000    60.000000     0.000000     0.000000     1.000000     0.000000     0.000000     0.500000
   19     1.000000   179.999999     1.000000    -0.000000     0.000000     0.000000     0.000000     0.500000
   20    -1.000000   180.000000     0.866025    -0.500000     0.000000     0.000000     0.000000     0.500000
   21     1.000000   180.000000     0.500000    -0.866025     0.000000     0.000000     0.000000     0.500000
   22    -1.000000   180.000000     0.000000     1.000000     0.000000     0.000000     0.000000     0.500000
   23     1.000000   180.000000    -0.500000    -0.866025     0.000000     0.000000     0.000000     0.500000
   24    -1.000000   180.000000     0.866025     0.500000     0.000000     0.000000     0.000000     0.500000

 Subroutine IBZKPT returns following result:

 Found     56 irreducible k-points:

 Following reciprocal coordinates:
            Coordinates               Weight
  0.000000  0.000000  0.000000      1.000000
  0.100000  0.000000  0.000000      6.000000
  0.200000  0.000000  0.000000      6.000000
  0.300000  0.000000  0.000000      6.000000
  0.400000  0.000000  0.000000      6.000000
  0.500000  0.000000  0.000000      3.000000
  0.100000  0.100000  0.000000      6.000000
  0.200000  0.100000  0.000000     12.000000
  0.300000  0.100000  0.000000     12.000000
  0.400000  0.100000  0.000000     12.000000
  0.200000  0.200000  0.000000      6.000000
  0.300000  0.200000  0.000000     12.000000
  0.400000  0.200000  0.000000      6.000000
  0.300000  0.300000  0.000000      6.000000
  0.000000  0.000000  0.166667      2.000000
  0.100000  0.000000  0.166667     12.000000
  0.200000  0.000000  0.166667     12.000000
  0.300000  0.000000  0.166667     12.000000
  0.400000  0.000000  0.166667     12.000000
  0.500000  0.000000  0.166667      6.000000
  0.100000  0.100000  0.166667     12.000000
  0.200000  0.100000  0.166667     24.000000
  0.300000  0.100000  0.166667     24.000000
  0.400000  0.100000  0.166667     24.000000
  0.200000  0.200000  0.166667     12.000000
  0.300000  0.200000  0.166667     24.000000
  0.400000  0.200000  0.166667     12.000000
  0.300000  0.300000  0.166667     12.000000
  0.000000  0.000000  0.333333      2.000000
  0.100000  0.000000  0.333333     12.000000
  0.200000  0.000000  0.333333     12.000000
  0.300000  0.000000  0.333333     12.000000
  0.400000  0.000000  0.333333     12.000000
  0.500000  0.000000  0.333333      6.000000
  0.100000  0.100000  0.333333     12.000000
  0.200000  0.100000  0.333333     24.000000
  0.300000  0.100000  0.333333     24.000000
  0.400000  0.100000  0.333333     24.000000
  0.200000  0.200000  0.333333     12.000000
  0.300000  0.200000  0.333333     24.000000
  0.400000  0.200000  0.333333     12.000000
  0.300000  0.300000  0.333333     12.000000
  0.000000  0.000000  0.500000      1.000000
  0.100000  0.000000  0.500000      6.000000
  0.200000  0.000000  0.500000      6.000000
  0.300000  0.000000  0.500000      6.000000
  0.400000  0.000000  0.500000      6.000000
  0.500000  0.000000  0.500000      3.000000
  0.100000  0.100000  0.500000      6.000000
  0.200000  0.100000  0.500000     12.000000
  0.300000  0.100000  0.500000     12.000000
  0.400000  0.100000  0.500000     12.000000
  0.200000  0.200000  0.500000      6.000000
  0.300000  0.200000  0.500000     12.000000
  0.400000  0.200000  0.500000      6.000000
  0.300000  0.300000  0.500000      6.000000

 Following cartesian coordinates:
            Coordinates               Weight
  0.000000  0.000000  0.000000      1.000000
  0.032919  0.019006  0.000000      6.000000
  0.065838  0.038011  0.000000      6.000000
  0.098756  0.057017  0.000000      6.000000
  0.131675  0.076023  0.000000      6.000000
  0.164594  0.095028  0.000000      3.000000
  0.032919  0.057017  0.000000      6.000000
  0.065838  0.076023  0.000000     12.000000
  0.098756  0.095028  0.000000     12.000000
  0.131675  0.114034  0.000000     12.000000
  0.065838  0.114034  0.000000      6.000000
  0.098756  0.133040  0.000000     12.000000
  0.131675  0.152045  0.000000      6.000000
  0.098756  0.171051  0.000000      6.000000
  0.000000  0.000000  0.033922      2.000000
  0.032919  0.019006  0.033922     12.000000
  0.065838  0.038011  0.033922     12.000000
  0.098756  0.057017  0.033922     12.000000
  0.131675  0.076023  0.033922     12.000000
  0.164594  0.095028  0.033922      6.000000
  0.032919  0.057017  0.033922     12.000000
  0.065838  0.076023  0.033922     24.000000
  0.098756  0.095028  0.033922     24.000000
  0.131675  0.114034  0.033922     24.000000
  0.065838  0.114034  0.033922     12.000000
  0.098756  0.133040  0.033922     24.000000
  0.131675  0.152045  0.033922     12.000000
  0.098756  0.171051  0.033922     12.000000
  0.000000  0.000000  0.067844      2.000000
  0.032919  0.019006  0.067844     12.000000
  0.065838  0.038011  0.067844     12.000000
  0.098756  0.057017  0.067844     12.000000
  0.131675  0.076023  0.067844     12.000000
  0.164594  0.095028  0.067844      6.000000
  0.032919  0.057017  0.067844     12.000000
  0.065838  0.076023  0.067844     24.000000
  0.098756  0.095028  0.067844     24.000000
  0.131675  0.114034  0.067844     24.000000
  0.065838  0.114034  0.067844     12.000000
  0.098756  0.133040  0.067844     24.000000
  0.131675  0.152045  0.067844     12.000000
  0.098756  0.171051  0.067844     12.000000
  0.000000  0.000000  0.101766      1.000000
  0.032919  0.019006  0.101766      6.000000
  0.065838  0.038011  0.101766      6.000000
  0.098756  0.057017  0.101766      6.000000
  0.131675  0.076023  0.101766      6.000000
  0.164594  0.095028  0.101766      3.000000
  0.032919  0.057017  0.101766      6.000000
  0.065838  0.076023  0.101766     12.000000
  0.098756  0.095028  0.101766     12.000000
  0.131675  0.114034  0.101766     12.000000
  0.065838  0.114034  0.101766      6.000000
  0.098756  0.133040  0.101766     12.000000
  0.131675  0.152045  0.101766      6.000000
  0.098756  0.171051  0.101766      6.000000

 SYSTEM =  NiAl
 POSCAR =  New structure

 Startparameter for this run:
   NWRITE =      2    write-flag & timer
   PREC   = normal    normal or accurate (medium, high low for compatibility)
[...]
   0.06583751  0.03801131  0.00000000       0.010
   0.09875627  0.05701696  0.00000000       0.010
   0.13167503  0.07602261  0.00000000       0.010
   0.16459379  0.09502827  0.00000000       0.005
   0.03291876  0.05701696  0.00000000       0.010
   0.06583751  0.07602261  0.00000000       0.020
   0.09875627  0.09502827  0.00000000       0.020
   0.13167503  0.11403392  0.00000000       0.020
   0.06583751  0.11403392  0.00000000       0.010
   0.09875627  0.13303957  0.00000000       0.020
   0.13167503  0.15204523  0.00000000       0.010
   0.09875627  0.17105088  0.00000000       0.010
   0.00000000  0.00000000  0.03392208       0.003
   0.03291876  0.01900565  0.03392208       0.020
   0.06583751  0.03801131  0.03392208       0.020
   0.09875627  0.05701696  0.03392208       0.020
   0.13167503  0.07602261  0.03392208       0.020
   0.16459379  0.09502827  0.03392208       0.010
   0.03291876  0.05701696  0.03392208       0.020
   0.06583751  0.07602261  0.03392208       0.040
   0.09875627  0.09502827  0.03392208       0.040
   0.13167503  0.11403392  0.03392208       0.040
   0.06583751  0.11403392  0.03392208       0.020
   0.09875627  0.13303957  0.03392208       0.040
   0.13167503  0.15204523  0.03392208       0.020
   0.09875627  0.17105088  0.03392208       0.020
   0.00000000  0.00000000  0.06784416       0.003
   0.03291876  0.01900565  0.06784416       0.020
   0.06583751  0.03801131  0.06784416       0.020
   0.09875627  0.05701696  0.06784416       0.020
   0.13167503  0.07602261  0.06784416       0.020
   0.16459379  0.09502827  0.06784416       0.010
   0.03291876  0.05701696  0.06784416       0.020
   0.06583751  0.07602261  0.06784416       0.040
   0.09875627  0.09502827  0.06784416       0.040
   0.13167503  0.11403392  0.06784416       0.040
   0.06583751  0.11403392  0.06784416       0.020
   0.09875627  0.13303957  0.06784416       0.040
   0.13167503  0.15204523  0.06784416       0.020
   0.09875627  0.17105088  0.06784416       0.020
   0.00000000  0.00000000  0.10176624       0.002
   0.03291876  0.01900565  0.10176624       0.010
   0.06583751  0.03801131  0.10176624       0.010
   0.09875627  0.05701696  0.10176624       0.010
   0.13167503  0.07602261  0.10176624       0.010
   0.16459379  0.09502827  0.10176624       0.005
   0.03291876  0.05701696  0.10176624       0.010
   0.06583751  0.07602261  0.10176624       0.020
   0.09875627  0.09502827  0.10176624       0.020
   0.13167503  0.11403392  0.10176624       0.020
   0.06583751  0.11403392  0.10176624       0.010
   0.09875627  0.13303957  0.10176624       0.020
   0.13167503  0.15204523  0.10176624       0.010
   0.09875627  0.17105088  0.10176624       0.010

 k-points in reciprocal lattice and weights: Automatic generation
   0.00000000  0.00000000  0.00000000       0.002
   0.10000000  0.00000000  0.00000000       0.010
   0.20000000  0.00000000  0.00000000       0.010
   0.30000000  0.00000000  0.00000000       0.010
   0.40000000  0.00000000  0.00000000       0.010
   0.50000000  0.00000000  0.00000000       0.005
   0.10000000  0.10000000  0.00000000       0.010
   0.20000000  0.10000000  0.00000000       0.020
   0.30000000  0.10000000  0.00000000       0.020
   0.40000000  0.10000000  0.00000000       0.020
   0.20000000  0.20000000  0.00000000       0.010
   0.30000000  0.20000000  0.00000000       0.020
   0.40000000  0.20000000  0.00000000       0.010
   0.30000000  0.30000000  0.00000000       0.010
   0.00000000  0.00000000  0.16666667       0.003
   0.10000000  0.00000000  0.16666667       0.020
   0.20000000  0.00000000  0.16666667       0.020
   0.30000000  0.00000000  0.16666667       0.020
   0.40000000  0.00000000  0.16666667       0.020
   0.50000000  0.00000000  0.16666667       0.010
   0.10000000  0.10000000  0.16666667       0.020
   0.20000000  0.10000000  0.16666667       0.040
   0.30000000  0.10000000  0.16666667       0.040
   0.40000000  0.10000000  0.16666667       0.040
   0.20000000  0.20000000  0.16666667       0.020
   0.30000000  0.20000000  0.16666667       0.040
   0.40000000  0.20000000  0.16666667       0.020
   0.30000000  0.30000000  0.16666667       0.020
   0.00000000  0.00000000  0.33333333       0.003
   0.10000000  0.00000000  0.33333333       0.020
   0.20000000  0.00000000  0.33333333       0.020
   0.30000000  0.00000000  0.33333333       0.020
   0.40000000  0.00000000  0.33333333       0.020
   0.50000000  0.00000000  0.33333333       0.010
   0.10000000  0.10000000  0.33333333       0.020
   0.20000000  0.10000000  0.33333333       0.040
   0.30000000  0.10000000  0.33333333       0.040
   0.40000000  0.10000000  0.33333333       0.040
   0.20000000  0.20000000  0.33333333       0.020
   0.30000000  0.20000000  0.33333333       0.040
   0.40000000  0.20000000  0.33333333       0.020
   0.30000000  0.30000000  0.33333333       0.020
   0.00000000  0.00000000  0.50000000       0.002
   0.10000000  0.00000000  0.50000000       0.010
   0.20000000  0.00000000  0.50000000       0.010
   0.30000000  0.00000000  0.50000000       0.010
   0.40000000  0.00000000  0.50000000       0.010
   0.50000000  0.00000000  0.50000000       0.005
   0.10000000  0.10000000  0.50000000       0.010
   0.20000000  0.10000000  0.50000000       0.020
   0.30000000  0.10000000  0.50000000       0.020
   0.40000000  0.10000000  0.50000000       0.020
   0.20000000  0.20000000  0.50000000       0.010
   0.30000000  0.20000000  0.50000000       0.020
   0.40000000  0.20000000  0.50000000       0.010
   0.30000000  0.30000000  0.50000000       0.010

 position of ions in fractional coordinates (direct lattice)
   0.33333333  0.66666667  0.00000000
   0.66666667  0.33333333  0.50000000

 position of ions in cartesian coordinates  (Angst):
   0.00000000  1.75386410  0.00000000
   1.51889087  0.87693205  2.45661036

 k-point  1 :   0.0000 0.0000 0.0000  plane waves:     463
 k-point  2 :   0.1000 0.0000 0.0000  plane waves:     469
 k-point  3 :   0.2000 0.0000 0.0000  plane waves:     463
 k-point  4 :   0.3000 0.0000 0.0000  plane waves:     458
 k-point  5 :   0.4000 0.0000 0.0000  plane waves:     464
 k-point  6 :   0.5000 0.0000 0.0000  plane waves:     460
 k-point  7 :   0.1000 0.1000 0.0000  plane waves:     465
 k-point  8 :   0.2000 0.1000 0.0000  plane waves:     459
 k-point  9 :   0.3000 0.1000 0.0000  plane waves:     461
 k-point 10 :   0.4000 0.1000 0.0000  plane waves:     459
 k-point 11 :   0.2000 0.2000 0.0000  plane waves:     468
 k-point 12 :   0.3000 0.2000 0.0000  plane waves:     460
 k-point 13 :   0.4000 0.2000 0.0000  plane waves:     464
 k-point 14 :   0.3000 0.3000 0.0000  plane waves:     462
 k-point 15 :   0.0000 0.0000 0.1667  plane waves:     470
 k-point 16 :   0.1000 0.0000 0.1667  plane waves:     467
 k-point 17 :   0.2000 0.0000 0.1667  plane waves:     461
 k-point 18 :   0.3000 0.0000 0.1667  plane waves:     459
 k-point 19 :   0.4000 0.0000 0.1667  plane waves:     461
 k-point 20 :   0.5000 0.0000 0.1667  plane waves:     462
 k-point 21 :   0.1000 0.1000 0.1667  plane waves:     465
 k-point 22 :   0.2000 0.1000 0.1667  plane waves:     463
 k-point 23 :   0.3000 0.1000 0.1667  plane waves:     462
 k-point 24 :   0.4000 0.1000 0.1667  plane waves:     459
 k-point 25 :   0.2000 0.2000 0.1667  plane waves:     463
 k-point 26 :   0.3000 0.2000 0.1667  plane waves:     467
 k-point 27 :   0.4000 0.2000 0.1667  plane waves:     466
 k-point 28 :   0.3000 0.3000 0.1667  plane waves:     463
 k-point 29 :   0.0000 0.0000 0.3333  plane waves:     488
 k-point 30 :   0.1000 0.0000 0.3333  plane waves:     474
 k-point 31 :   0.2000 0.0000 0.3333  plane waves:     464
 k-point 32 :   0.3000 0.0000 0.3333  plane waves:     461
 k-point 33 :   0.4000 0.0000 0.3333  plane waves:     465
 k-point 34 :   0.5000 0.0000 0.3333  plane waves:     458
 k-point 35 :   0.1000 0.1000 0.3333  plane waves:     465
 k-point 36 :   0.2000 0.1000 0.3333  plane waves:     460
 k-point 37 :   0.3000 0.1000 0.3333  plane waves:     463
 k-point 38 :   0.4000 0.1000 0.3333  plane waves:     467
 k-point 39 :   0.2000 0.2000 0.3333  plane waves:     459
 k-point 40 :   0.3000 0.2000 0.3333  plane waves:     463
 k-point 41 :   0.4000 0.2000 0.3333  plane waves:     464
 k-point 42 :   0.3000 0.3000 0.3333  plane waves:     462
 k-point 43 :   0.0000 0.0000 0.5000  plane waves:     494
 k-point 44 :   0.1000 0.0000 0.5000  plane waves:     478
 k-point 45 :   0.2000 0.0000 0.5000  plane waves:     464
 k-point 46 :   0.3000 0.0000 0.5000  plane waves:     462
 k-point 47 :   0.4000 0.0000 0.5000  plane waves:     458
 k-point 48 :   0.5000 0.0000 0.5000  plane waves:     456
 k-point 49 :   0.1000 0.1000 0.5000  plane waves:     470
 k-point 50 :   0.2000 0.1000 0.5000  plane waves:     466
 k-point 51 :   0.3000 0.1000 0.5000  plane waves:     460
 k-point 52 :   0.4000 0.1000 0.5000  plane waves:     468
 k-point 53 :   0.2000 0.2000 0.5000  plane waves:     458
 k-point 54 :   0.3000 0.2000 0.5000  plane waves:     464
 k-point 55 :   0.4000 0.2000 0.5000  plane waves:     472
 k-point 56 :   0.3000 0.3000 0.5000  plane waves:     460

 maximum and minimum number of plane-waves per node :       494      456

 maximum number of plane-waves:       494
 maximum index in each direction:
   IXMAX=    4   IYMAX=    4   IZMAX=    6
   IXMIN=   -4   IYMIN=   -4   IZMIN=   -7

 serial   3D FFT for wavefunctions
 parallel 3D FFT for charge:
    minimum data exchange during FFTs selected (reduces bandwidth)

 Broyden mixing: mesh for mixing (old mesh)
   NGX =  9   NGY =  9   NGZ = 13
  (NGX  = 28   NGY  = 28   NGZ  = 48)
  gives a total of   1053 points

 initial charge density was supplied:
 charge density of overlapping atoms calculated
 number of electron       6.0000000 magnetization
 keeping initial charge density in first step

 Maximum index for non-local projection operator         1980
 Maximum index for augmentation-charges         1138 (set IRDMAX)

 First call to EWALD:  gamma=   0.521
 Maximum number of real-space cells 3x 3x 2
 Maximum number of reciprocal cells 3x 3x 4

--------------------------------------- Iteration      1(   1)  ---------------------------------------

 eigenvalue-minimisations  :   896
 total energy-change (2. order) :-0.3644863E+01  (-0.1633215E+03)
 number of electron       6.0000000 magnetization
 augmentation part        6.0000000 magnetization

 Free energy of the ion-electron system (eV)
  alpha Z        PSCENC =         6.08193270
  Ewald energy   TEWEN  =      -138.74590742
  -Hartree energ DENC   =        -0.40738258
  -exchange      EXHF   =         0.00000000
  -V(xc)+E(xc)   XCENC  =       -53.08261686
  PAW double counting   =       132.40031435      -68.49124152
  entropy T*S    EENTRO =        -0.00072726
  eigenvalues    EBANDS =        11.52551806
  atomic energy  EATOM  =       107.07524800
  Solvation  Ediel_sol  =         0.00000000
  free energy    TOTEN  =        -3.64486253 eV

  energy without entropy =       -3.64413527  energy(sigma->0) =       -3.64449890

[...]

 eigenvalue-minimisations  :  1176
 total energy-change (2. order) :-0.6497103E-07  (-0.6494327E-07)
 number of electron       6.0000000 magnetization
 augmentation part       -0.0869408 magnetization

 Broyden mixing:
  rms(total) = 0.12124E+00    rms(broyden)= 0.12124E+00
  rms(prec ) = 0.25843E+00
  weight for this iteration     100.00

[...]

 eigenvalue-minimisations  :  1216
 total energy-change (2. order) : 0.2633968E-01  (-0.5350615E-03)
 number of electron       6.0000000 magnetization
 augmentation part       -0.0879860 magnetization

[...]

 eigenvalues of (default mixing * dielectric matrix)
  average eigenvalue GAMMA=   2.6065
  2.6065

[...]

 Broyden mixing:
  rms(total) = 0.84701E-03    rms(broyden)= 0.84692E-03
  rms(prec ) = 0.15354E-02
  weight for this iteration     100.00

 eigenvalues of (default mixing * dielectric matrix)
  average eigenvalue GAMMA=   2.0769
  1.0124  2.7233  2.4950

[...]

--------------------------------------- Iteration      1(   9)  ---------------------------------------

 eigenvalue-minimisations  :  1056
 total energy-change (2. order) : 0.4852519E-06  (-0.7343265E-07)
 number of electron       6.0000000 magnetization
 augmentation part       -0.0897982 magnetization

 Free energy of the ion-electron system (eV)
  alpha Z        PSCENC =         6.08193270
  Ewald energy   TEWEN  =      -138.74590742
  -Hartree energ DENC   =        -0.21467619
  -exchange      EXHF   =         0.00000000
  -V(xc)+E(xc)   XCENC  =       -52.94405514
  PAW double counting   =       151.61248617      -87.69186067
  entropy T*S    EENTRO =        -0.00108094
  eigenvalues    EBANDS =         7.57084241
  atomic energy  EATOM  =       107.07524800
  Solvation  Ediel_sol  =         0.00000000
  free energy    TOTEN  =        -7.25707108 eV

  energy without entropy =       -7.25599014  energy(sigma->0) =       -7.25653061

 average (electrostatic) potential at core
  the test charge radii are     1.0406
  (the norm of the test charge is              1.0000)
       1 -52.9362       2 -52.9362

 E-fermi :   5.3427     XC(G=0):  -9.5848     alpha+bet :-11.4508

 k-point     1 :       0.0000    0.0000    0.0000
  band No.  band energies     occupation
      1      -4.7600      2.00000
      2       1.1748      2.00000
      3       1.3535      2.00000
      4      14.2532      0.00000
      5      14.2532      0.00000
      6      15.1220      0.00000
      7      15.1220      0.00000
      8      16.5865      0.00000

[...]

 k-point    56 :       0.3000    0.3000    0.5000
  band No.  band energies     occupation
      1       2.3520      2.00000
      2       2.3520      2.00000
      3       4.2575      2.00000
      4       4.2575      2.00000
      5       4.7000      2.00000
      6       4.7000      2.00000
      7      13.5666      0.00000
      8      13.5666      0.00000

 soft charge-density along one line, spin component           1
         0         1         2         3         4         5         6         7         8         9
 total charge-density along one line

------------------------ aborting loop because EDIFF is reached ----------------------------------------

  FORCE on cell =-STRESS in cart. coord.  units (eV):
  Direction    XX          YY          ZZ          XY          YZ          ZX
  Alpha Z     6.08193     6.08193     6.08193
  Ewald     -46.46417   -46.46417   -45.81767    -0.00000    -0.00000    -0.00000
  Hartree     0.05377     0.05377     0.10716    -0.00000    -0.00000    -0.00000
  E(xc)     -16.28087   -16.28092   -16.29392    -0.00004     0.00000     0.00000
  Local      -2.58653    -2.58653    -3.34386    -0.00000    -0.00000    -0.00000
  n-local    30.95757    31.65867    31.42327    -0.71650     0.14436     0.30291
  augment    -1.18591    -1.18590    -1.19770     0.00001    -0.00000    -0.00000
  Kinetic    33.58335    19.67121    27.47925    16.60818    -3.29434    -3.33448
  Fock        0.00000     0.00000     0.00000     0.00000     0.00000     0.00000
  Total      -2.44639    -2.44639    -1.56152    -0.00000     0.00000     0.00000
  in kB     -99.82212   -99.82212   -63.71596    -0.00000     0.00000     0.00000

 VOLUME and BASIS-vectors are now :
  energy-cutoff  :      300.00
  volume of cell :       39.27
      direct lattice vectors                 reciprocal lattice vectors
     3.037781739  0.000000000  0.000000000     0.329187574  0.190056534  0.000000000
    -1.518890869  2.630796157  0.000000000     0.000000000  0.380113069  0.000000000
     0.000000000  0.000000000  4.913220717     0.000000000  0.000000000  0.203532481

  length of vectors
     3.037781739  3.037781739  4.913220717     0.380113069  0.380113069  0.203532481

 FORCES acting on ions
    electron-ion (+dipol)            ewald-force                    non-local-force                 convergence-correction
   0.426E-05 -.246E-05 0.984E-14   -.156E-12 0.906E-13 -.192E-14   -.199E-16 0.139E-16 0.000E+00   -.824E-09 0.476E-09 -.297E-14
   -.426E-05 0.246E-05 0.156E-13   0.156E-12 -.900E-13 0.192E-14   0.295E-16 -.139E-16 0.000E+00   0.824E-09 -.476E-09 0.298E-14
   0.641E-14 0.690E-13 0.254E-13   0.751E-16 0.523E-15 0.000E+00   0.954E-17 0.000E+00 0.000E+00   -.285E-16 -.164E-16 0.125E-17

 POSITION                                       TOTAL-FORCE (eV/Angst)
      0.00000      1.75386      0.00000        -0.000000      0.000000      0.000000
      1.51889      0.87693      2.45661         0.000000     -0.000000      0.000000
    total drift:                                0.000000      0.000000      0.000000

  FREE ENERGIE OF THE ION-ELECTRON SYSTEM (eV)
  free  energy   TOTEN  =        -7.25707108 eV

  energy  without entropy=       -7.25599014  energy(sigma->0) =       -7.25653061