 vasp.5.4.4.18Apr17-6-g9f103f2a35 (build May 02 2017 15:33:50) complex

 executed on Intel-16.0.3.210-OMP date 2018.08.08  20:52:57

 INCAR:
 POTCAR:    PAW Al_GW 19Mar2012
 POTCAR:    PAW_PBE N 08Apr2002

 POTCAR:    PAW Al_GW 19Mar2012
   VRHFIN =Al: s2p1

   TITEL  = PAW Al_GW 19Mar2012
   POMASS =   26.982; ZVAL   =    3.000    mass and valenz
   ENMAX  =  240.300; ENMIN  =  180.225 eV

 POTCAR:    PAW_PBE N 08Apr2002
   VRHFIN =N: s2p3

   TITEL  = PAW_PBE N 08Apr2002
   POMASS =   14.001; ZVAL   =    5.000    mass and valenz
   ENMAX  =  400.000; ENMIN  =  300.000 eV

 Optimization of the real space projectors (new method)

 maximal supplied QI-value         = 18.90
 optimisation between [QCUT,QGAM] = [  8.69, 17.57] = [ 21.16, 86.49] Ry
 Optimized for a Real-space Cutoff    1.59 Angstroem

   l    n(q)    QCUT    max X(q) W(low)/X(q) W(high)/X(q)  e(spline)
   0      8     8.693    11.519    0.12E-03    0.31E-04    0.21E-06
   0      8     8.693     5.834    0.89E-04    0.32E-04    0.16E-06
   1      8     8.693    10.132    0.25E-03    0.39E-03    0.25E-06
   1      8     8.693     3.004    0.16E-03    0.27E-03    0.22E-06
   2      7     8.693     3.169    0.39E-03    0.93E-03    0.44E-06
   2      7     8.693     1.605    0.70E-04    0.91E-04    0.19E-06
 Optimization of the real space projectors (new method)

 maximal supplied QI-value         = 25.13
 optimisation between [QCUT,QGAM] = [  8.80, 17.59] = [ 21.67, 86.68] Ry
 Optimized for a Real-space Cutoff    2.14 Angstroem

   l    n(q)    QCUT    max X(q) W(low)/X(q) W(high)/X(q)  e(spline)
   0     11     8.797    79.467    0.70E-04    0.19E-04    0.19E-05
   0     11     8.797    66.151    0.68E-04    0.18E-04    0.19E-05
   1     11     8.797     6.738    0.26E-03    0.11E-02    0.73E-05
   1     11     8.797     5.013    0.25E-03    0.11E-02    0.72E-05
  PAW Al_GW 19Mar2012                   :
  PAW_PBE N 08Apr2002                   :

 POSCAR: New structure
  positions in cartesian coordinates
 exchange correlation table for  LEXCH =        8
   RHO(1)=    0.500       N(1)  =     2000
   RHO(2)=  100.500       N(2)  =     4000

 ion  position               nearest neighbor table
   1  0.444  0.444  0.079-
   2  0.444  0.778  0.079-
   3  0.444  0.111  0.079-
   4  0.778  0.444  0.079-
   5  0.778  0.778  0.079-
   6  0.778  0.111  0.079-
   7  0.111  0.444  0.079-
   8  0.111  0.778  0.079-
   9  0.111  0.111  0.079-
  10  0.556  0.556  0.157-
  11  0.556  0.889  0.157-
  12  0.556  0.222  0.157-
  13  0.889  0.556  0.157-
  14  0.889  0.889  0.157-
  15  0.889  0.222  0.157-
  16  0.222  0.556  0.157-
  17  0.222  0.889  0.157-
  18  0.222  0.222  0.157-
  19  0.667  0.667  0.234-
  20  0.667  0.000  0.234-
  21  0.667  0.333  0.234-
  22  0.000  0.667  0.234-
  23  0.000  0.000  0.234-
  24  0.000  0.333  0.234-
  25  0.333  0.667  0.234-
  26  0.333  0.000  0.234-
  27  0.333  0.333  0.234-
  28  0.778  0.778  0.312-
  29  0.778  0.111  0.312-
  30  0.778  0.444  0.312-
  31  0.111  0.778  0.312-
  32  0.111  0.111  0.312-
  33  0.111  0.444  0.312-
  34  0.444  0.778  0.312-
  35  0.444  0.111  0.312-
  36  0.444  0.444  0.312-
  37  0.889  0.889  0.390-
  38  0.889  0.222  0.390-
  39  0.889  0.556  0.390-
  40  0.222  0.889  0.390-
  41  0.222  0.222  0.390-
  42  0.222  0.556  0.390-
  43  0.556  0.889  0.390-
  44  0.556  0.222  0.390-
  45  0.556  0.556  0.390-
  46  0.000  0.000  0.466-
  47  0.000  0.333  0.466-
  48  0.000  0.667  0.466-
  49  0.333  0.000  0.466-
  50  0.333  0.333  0.466-
  51  0.333  0.667  0.466-
  52  0.667  0.000  0.466-
  53  0.667  0.333  0.466-
  54  0.667  0.667  0.466-
  55  0.111  0.111  0.545-
  56  0.111  0.444  0.545-
  57  0.111  0.778  0.545-
  58  0.444  0.111  0.545-
  59  0.444  0.444  0.545-
  60  0.444  0.778  0.545-
[...]
 238  0.333  0.833  0.466-
 239  0.333  0.167  0.466-
 240  0.333  0.500  0.466-
 241  0.667  0.833  0.466-
 242  0.667  0.167  0.466-
 243  0.667  0.500  0.466-
 244  0.111  0.944  0.545-
 245  0.111  0.278  0.545-
 246  0.111  0.611  0.545-
 247  0.444  0.944  0.545-
 248  0.444  0.278  0.545-
 249  0.444  0.611  0.545-
 250  0.778  0.944  0.545-
 251  0.778  0.278  0.545-
 252  0.778  0.611  0.545-
 253  0.343  0.481  0.601- 254 1.10
 254  0.380  0.407  0.601- 253 1.10

  LATTYP: Found a hexagonal cell.
 ALAT       =    17.1805734625
 C/A-ratio  =     1.7461582447

  Lattice vectors:

 A1 = (   0.0000000000,  -8.5902867312,  14.8788130701)
 A2 = (   0.0000000000,  17.1805734625,   0.0000000000)
 A3 = ( -30.0000000000,   0.0000000000,   0.0000000000)

Analysis of symmetry for initial positions (statically):
 Subroutine PRICEL returns:
 Original cell was already a primitive cell.

 Routine SETGRP: Setting up the symmetry group for a
 hexagonal supercell.

 Subroutine GETGRP returns: Found  2 space group operations
 (whereof  1 operations were pure point group operations)
 out of a pool of 24 trial point group operations.

The static configuration has the point symmetry C_1 .
 The point group associated with its full space group is C_1h.

Analysis of symmetry for dynamics (positions and initial velocities):
 Subroutine PRICEL returns:
 Original cell was already a primitive cell.

 Routine SETGRP: Setting up the symmetry group for a
 hexagonal supercell.

 Subroutine GETGRP returns: Found  2 space group operations
 (whereof  1 operations were pure point group operations)
 out of a pool of 24 trial point group operations.

The dynamic configuration has the point symmetry C_1 .
 The point group associated with its full space group is C_1h.

 Subroutine INISYM returns: Found  2 space group operations
 (whereof  1 operations are pure point group operations),
 and found     1 'primitive' translations

 KPOINTS: Automatic generation

Automatic generation of k-mesh.
Space group operators:
 irot       det(A)        alpha          n_x          n_y          n_z        tau_x        tau_y        tau_z
    1     1.000000     0.000000     1.000000     0.000000     0.000000     0.000000     0.000000     0.000000
    2    -1.000000   180.000000     0.000000     1.000000     0.000000    -0.833333     0.000000     0.000000

 Subroutine IBZKPT returns following result:

 Found      3 irreducible k-points:

 Following reciprocal coordinates:
            Coordinates               Weight
  0.000000  0.000000  0.000000      1.000000
  0.500000  0.000000  0.000000      2.000000
  0.000000  0.500000  0.000000      1.000000

 Following cartesian coordinates:
            Coordinates               Weight
  0.000000  0.000000  0.000000      1.000000
  0.000000 -0.029103  0.016802      2.000000
  0.000000  0.000000 -0.033605      1.000000

 SYSTEM =  NiAl
 POSCAR =  New structure

 Startparameter for this run:
   NWRITE =      2    write-flag & timer
   PREC   = normal    normal or accurate (medium, high low for compatibility)
   ISTART =      0    job   : 0-new  1-cont  2-samecut
   ICHARG =      2    charge: 1-file 2-atom 10-const
   ISPIN  =      1    spin polarized calculation?
   LNONCOLLINEAR =      F non collinear calculations
   LSORBIT =      F    spin-orbit coupling
   INIWAV =      1    electr: 0-lowe 1-rand  2-diag
   LASPH  =      F    aspherical Exc in radial PAW
   METAGGA=      F    non-selfconsistent MetaGGA calc.

 Electronic Relaxation 1
   ENCUT  =  300.0 eV  22.05 Ry    4.70 a.u.  24.26 24.26 42.37*2*pi/ulx,y,z
   ENINI  =  300.0     initial cutoff
   ENAUG  =  627.1 eV  augmentation charge cutoff
   NELM   =     60;   NELMIN=  6; NELMDL= -5     # of ELM steps
   EDIFF  = 0.5E-05   stopping-criterion for ELM
   LREAL  =      T    real-space projection
   NLSPLINE    = F    spline interpolate recip. space projectors
   LCOMPAT=      F    compatible to vasp.4.4
   GGA_COMPAT  = T    GGA compatible to vasp.4.4-vasp.4.6
   LMAXPAW     = -100 max onsite density
   LMAXMIX     =    2 max onsite mixed and CHGCAR
   VOSKOWN=      0    Vosko Wilk Nusair interpolation
   ROPT   =   -0.00050  -0.00050
 Ionic relaxation
   EDIFFG = 0.5E-04   stopping-criterion for IOM
   NSW    =      0    number of steps for IOM
   NBLOCK =      1;   KBLOCK =      1    inner block; outer block
   IBRION =     -1    ionic relax: 0-MD 1-quasi-New 2-CG
   NFREE  =      0    steps in history (QN), initial steepest desc. (CG)
   ISIF   =      0    stress and relaxation
   IWAVPR =     10    prediction:  0-non 1-charg 2-wave 3-comb
   ISYM   =      2    0-nonsym 1-usesym 2-fastsym
   LCORR  =      T    Harris-Foulkes like correction to forces

   POTIM  = 0.5000    time-step for ionic-motion
   TEIN   =    0.0    initial temperature
   TEBEG  =    0.0;   TEEND  =   0.0 temperature during run
   SMASS  =  -3.00    Nose mass-parameter (am)
   estimated Nose-frequenzy (Omega)   =  0.10E-29 period in steps =****** mass=  -0.675E-26a.u.
   SCALEE = 1.0000    scale energy and forces
   NPACO  =    256;   APACO  = 16.0  distance and # of slots for P.C.
   PSTRESS=    0.0 pullay stress

  Mass of Ions in am
   POMASS =  26.98 14.00
  Ionic Valenz
   ZVAL   =   3.00  5.00
  Atomic Wigner-Seitz radii
  virtual crystal weights
   VCA    =   1.00  1.00
   NELECT =     766.0000    total number of electrons
   NUPDOWN=      -1.0000    fix difference up-down

 DOS related values:
   EMIN   =  10.00;   EMAX   =-10.00  energy-range for DOS
   EFERMI =   0.00
   ISMEAR =     0;   SIGMA  =   0.05  broadening in eV -4-tet -1-fermi 0-gaus

 Electronic relaxation 2 (details)
   IALGO  =     38    algorithm
   LDIAG  =      T    sub-space diagonalisation (order eigenvalues)
   LSUBROT=      F    optimize rotation matrix (better conditioning)
   TURBO    =      0    0=normal 1=particle mesh
   IRESTART =      0    0=no restart 2=restart with 2 vectors
   NREBOOT  =      0    no. of reboots
   NMIN     =      0    reboot dimension
   EREF     =   0.00    reference energy to select bands
   IMIX   =      4    mixing-type and parameters
     AMIX     =   0.40;   BMIX     =  1.00
     AMIX_MAG =   1.60;   BMIX_MAG =  1.00
     AMIN     =   0.10
     WC   =   100.;   INIMIX=   1;  MIXPRE=   1;  MAXMIX= -45

 Intra band minimization:
   WEIMIN = 0.0000     energy-eigenvalue tresh-hold
   EBREAK =  0.24E-08  absolut break condition
   DEPER  =   0.30     relativ break condition

   TIME   =   0.40     timestep for ELM

  volume/ion in A,a.u.               =      30.19       203.75
  Fermi-wavevector in a.u.,A,eV,Ry     =   0.759583  1.435404  7.850108  0.576967
  Thomas-Fermi vector in A             =   1.858410

 Write flags
   LWAVE        =      F    write WAVECAR
   LDOWNSAMPLE  =      F    k-point downsampling of WAVECAR
   LCHARG       =      F    write CHGCAR
   LVTOT        =      F    write LOCPOT, total local potential
   LVHAR        =      F    write LOCPOT, Hartree potential only
   LELF         =      F    write electronic localiz. function (ELF)
   LORBIT       =      0    0 simple, 1 ext, 2 COOP (PROOUT), +10 PAW based schemes

 Dipole corrections
   LMONO  =      F    monopole corrections only (constant potential shift)
   LDIPOL =      F    correct potential (dipole corrections)
   IDIPOL =      0    1-x, 2-y, 3-z, 4-all directions
   EPSILON=  1.0000000 bulk dielectric constant

[...]
    30.000000000  0.000000000  0.000000000     0.033333333  0.000000000  0.000000000

  length of vectors
    17.180573462 17.180573462 30.000000000     0.067209662  0.067209662  0.033333333

 FORCES acting on ions
    electron-ion (+dipol)            ewald-force                    non-local-force                 convergence-correction
   0.313E+03 0.632E-01 0.183E-01   -.313E+03 -.686E-01 0.254E-03   -.915E+00 -.615E-02 -.127E-01   -.214E-04 0.324E-05 0.910E-05
   0.313E+03 0.642E-01 0.580E-01   -.313E+03 -.669E-01 -.659E-01   -.836E+00 0.503E-02 0.827E-02   -.200E-04 -.183E-04 -.579E-05
   0.313E+03 -.284E-01 -.118E+00   -.313E+03 0.340E-01 0.124E+00   -.839E+00 0.320E-02 -.103E-01   -.110E-04 -.125E-04 0.127E-04
   0.313E+03 0.607E-01 0.774E-02   -.313E+03 -.670E-01 0.274E-03   -.846E+00 0.284E-02 -.206E-03   -.308E-04 0.351E-05 -.153E-04
   0.314E+03 -.501E-01 0.117E-01   -.313E+03 0.327E-01 -.759E-02   -.858E+00 0.215E-02 -.213E-02   -.124E-04 0.859E-05 -.153E-04
   0.313E+03 0.648E-01 -.627E-01   -.313E+03 -.669E-01 0.659E-01   -.817E+00 -.251E-02 -.442E-02   -.232E-04 0.251E-04 0.907E-05
   0.313E+03 -.139E+00 0.277E-01   -.313E+03 0.136E+00 0.311E-03   -.837E+00 0.138E-02 -.133E-01   -.262E-04 -.619E-05 -.329E-05
   0.313E+03 -.411E-01 0.127E+00   -.313E+03 0.340E-01 -.124E+00   -.837E+00 0.107E-01 -.467E-02   -.280E-04 0.944E-05 0.308E-05
   0.313E+03 -.481E-01 -.278E-02   -.313E+03 0.328E-01 0.760E-02   -.833E+00 0.147E-01 -.485E-02   -.355E-04 -.134E-04 0.564E-05
   0.212E+03 0.194E+00 0.804E-01   -.211E+03 -.154E+00 -.593E-01   -.192E+00 -.222E-01 -.836E-02   -.211E-04 -.195E-05 -.101E-04
   0.212E+03 0.210E-01 -.348E-01   -.211E+03 -.131E-01 0.472E-01   -.185E+00 -.272E-02 -.679E-02   -.154E-04 -.155E-04 -.755E-05
   0.212E+03 0.826E-01 -.168E+00   -.211E+03 -.632E-01 0.145E+00   -.211E+00 -.845E-02 0.166E-01   -.159E-04 0.146E-04 0.195E-04
   0.212E+03 -.489E-01 0.367E-01   -.211E+03 0.755E-01 -.300E-01   -.174E+00 -.103E-01 -.818E-02   -.223E-04 0.427E-06 -.276E-04
   0.212E+03 -.197E-01 0.161E-01   -.211E+03 0.276E-01 -.314E-01   -.191E+00 -.395E-02 0.122E-01   -.205E-04 0.312E-04 0.866E-06
   0.212E+03 0.593E-01 -.306E-01   -.211E+03 -.611E-01 0.367E-01   -.187E+00 -.299E-02 -.801E-03   -.277E-04 0.156E-04 -.436E-06
   0.212E+03 -.635E-01 0.886E-01   -.212E+03 0.786E-01 -.891E-01   -.229E+00 0.607E-04 -.529E-02   -.210E-04 0.159E-05 0.724E-05
   0.212E+03 0.241E-01 0.113E+00   -.211E+03 -.144E-01 -.110E+00   -.168E+00 -.660E-02 0.823E-03   -.248E-04 -.153E-04 0.876E-05
   0.212E+03 -.109E+00 -.899E-01   -.211E+03 0.124E+00 0.904E-01   -.152E+00 -.140E-01 -.206E-02   -.219E-04 -.293E-04 0.948E-05
   0.107E+03 0.130E+00 0.735E-01   -.107E+03 -.130E+00 -.779E-01   0.177E+00 0.913E-03 -.359E-02   0.792E-06 -.651E-05 -.294E-04
   0.107E+03 0.413E-01 -.224E+00   -.107E+03 -.327E-01 0.238E+00   0.179E+00 -.628E-03 -.116E-01   0.538E-05 0.189E-04 0.491E-05
   0.107E+03 0.382E+00 -.143E+00   -.107E+03 -.341E+00 0.131E+00   0.191E+00 -.156E-01 -.300E-04   0.150E-05 0.229E-04 0.432E-05
   0.107E+03 -.283E+00 0.199E+00   -.107E+03 0.272E+00 -.199E+00   0.171E+00 0.377E-02 0.563E-02   0.254E-06 0.144E-04 -.120E-04
   0.107E+03 0.302E-01 0.755E-01   -.107E+03 -.264E-01 -.100E+00   0.167E+00 -.320E-02 0.808E-02   0.446E-05 0.186E-04 0.108E-04
   0.107E+03 -.138E+00 -.696E-01   -.107E+03 0.163E+00 0.631E-01   0.167E+00 -.137E-01 -.113E-02   0.231E-05 -.121E-04 -.109E-04
   0.107E+03 0.153E+00 0.363E+00   -.107E+03 -.142E+00 -.325E+00   0.200E+00 -.115E-01 -.176E-01   0.763E-07 -.767E-05 0.484E-05
   0.107E+03 -.662E-01 -.424E-01   -.107E+03 0.593E-01 0.678E-01   0.160E+00 0.333E-02 -.244E-01   0.497E-05 -.380E-04 0.731E-05
   0.107E+03 -.166E+00 -.186E+00   -.108E+03 0.179E+00 0.202E+00   0.205E+00 -.883E-02 -.102E-01   0.213E-05 -.115E-04 0.200E-04
   0.379E+01 -.217E+00 0.333E-01   -.381E+01 0.196E+00 -.489E-01   -.117E-02 0.116E-01 0.360E-02   -.653E-05 0.136E-04 -.248E-04
   0.420E+01 0.423E+00 -.428E+00   -.418E+01 -.434E+00 0.438E+00   -.138E-01 0.737E-02 -.704E-02   -.189E-05 0.358E-04 0.129E-04
   0.406E+01 0.409E+00 -.311E-02   -.405E+01 -.436E+00 0.219E-03   -.132E-02 0.217E-01 0.401E-02   -.375E-05 0.483E-05 -.194E-04
   0.460E+01 -.229E+00 0.868E+00   -.462E+01 0.239E+00 -.857E+00   0.149E-01 -.951E-02 0.723E-02   -.142E-05 0.119E-04 0.364E-05
   0.382E+01 -.219E+00 -.421E-01   -.381E+01 0.196E+00 0.492E-01   -.701E-02 0.133E-01 -.308E-02   0.148E-05 -.177E-04 0.884E-05
   0.490E+01 -.100E+01 -.127E-01   -.494E+01 0.969E+00 0.121E-03   0.438E-01 -.213E-02 0.886E-02   -.171E-05 -.127E-04 -.205E-05
   0.420E+01 0.427E+00 0.420E+00   -.418E+01 -.433E+00 -.438E+00   -.134E-01 0.842E-02 0.113E-01   -.480E-05 -.245E-04 -.103E-04
   0.460E+01 -.242E+00 -.869E+00   -.462E+01 0.239E+00 0.857E+00   0.757E-02 -.850E-03 -.383E-02   -.210E-05 -.191E-04 0.158E-04
   0.603E+01 0.493E+00 0.477E-02   -.603E+01 -.542E+00 -.117E-03   -.459E-02 0.273E-01 -.137E-02   0.218E-05 0.602E-05 0.162E-04
   -.993E+02 -.341E+00 0.438E+00   0.994E+02 0.344E+00 -.411E+00   -.166E+00 -.966E-02 -.189E-01   -.256E-05 0.281E-04 -.363E-05
   -.994E+02 0.761E+00 -.426E+00   0.996E+02 -.740E+00 0.426E+00   -.145E+00 -.121E-02 -.123E-01   0.506E-05 0.139E-04 0.418E-05
   -.992E+02 -.982E+00 0.329E+00   0.994E+02 0.967E+00 -.344E+00   -.146E+00 -.230E-02 0.137E-01   -.218E-05 -.965E-06 -.242E-04
   -.989E+02 0.234E+00 0.142E+01   0.991E+02 -.227E+00 -.144E+01   -.161E+00 -.632E-02 0.228E-01   0.313E-05 -.139E-04 0.508E-05
   -.980E+02 -.180E+01 -.132E+01   0.982E+02 0.179E+01 0.132E+01   -.147E+00 0.397E-03 -.121E-02   0.372E-05 -.314E-04 0.108E-04
   -.941E+02 -.158E+01 0.175E+01   0.944E+02 0.156E+01 -.175E+01   -.285E+00 0.101E-01 0.341E-02   0.262E-06 -.426E-06 0.102E-04
   -.995E+02 0.121E+00 -.616E+00   0.997E+02 -.121E+00 0.558E+00   -.157E+00 0.521E-02 0.349E-01   -.688E-05 -.160E-04 -.131E-04
   -.959E+02 0.110E+01 -.254E+01   0.961E+02 -.111E+01 0.252E+01   -.197E+00 0.804E-02 -.935E-02   -.487E-06 0.156E-04 0.187E-04
   -.973E+02 0.241E+01 0.904E+00   0.974E+02 -.241E+01 -.916E+00   -.850E-01 0.323E-01 0.184E-01   0.589E-06 0.262E-05 -.623E-05
   -.206E+03 0.204E+00 0.112E+01   0.206E+03 -.207E+00 -.110E+01   0.161E+00 0.108E-02 -.743E-03   0.162E-04 0.130E-04 0.575E-05
   -.206E+03 -.204E+01 -.654E+00   0.206E+03 0.202E+01 0.678E+00   0.185E+00 0.825E-02 -.193E-01   0.161E-04 -.113E-04 -.172E-05
   -.204E+03 -.424E+01 0.314E+01   0.203E+03 0.425E+01 -.313E+01   0.196E+00 0.201E-01 -.183E-01   0.104E-04 0.706E-05 -.864E-05
   -.206E+03 -.698E+00 -.881E+00   0.206E+03 0.708E+00 0.868E+00   0.172E+00 -.108E-01 0.638E-02   0.106E-04 -.284E-04 0.173E-06
   -.192E+03 -.574E+01 -.637E+01   0.192E+03 0.572E+01 0.630E+01   0.130E+00 0.208E-01 0.799E-01   0.225E-04 -.126E-04 0.165E-04
   -.198E+03 0.343E+01 0.749E+01   0.198E+03 -.334E+01 -.745E+01   0.102E+00 -.643E-01 -.930E-02   0.207E-04 -.130E-05 0.917E-05
   -.205E+03 0.531E+00 -.309E+01   0.205E+03 -.527E+00 0.309E+01   0.173E+00 -.730E-02 0.770E-02   0.431E-05 0.156E-04 -.336E-05
   -.202E+03 0.614E+01 -.231E+01   0.202E+03 -.622E+01 0.233E+01   0.297E+00 0.997E-01 -.374E-01   0.161E-04 0.242E-04 0.724E-05
   -.206E+03 0.152E+01 0.845E+00   0.206E+03 -.149E+01 -.837E+00   0.182E+00 -.109E-01 0.766E-02   0.753E-05 -.333E-05 -.246E-04
   -.312E+03 -.132E+01 -.339E+00   0.311E+03 0.131E+01 0.383E+00   0.843E+00 -.596E-02 -.339E-01   0.300E-04 -.109E-04 0.568E-05
   -.306E+03 -.162E+02 0.563E-02   0.305E+03 0.164E+02 -.446E-02   0.912E+00 -.131E+00 -.133E-01   0.357E-04 -.233E-04 0.192E-05
   -.309E+03 -.326E+01 0.111E+02   0.308E+03 0.328E+01 -.112E+02   0.881E+00 -.142E-01 0.860E-01   0.356E-04 0.171E-05 0.125E-04
   -.309E+03 -.330E+01 -.111E+02   0.308E+03 0.329E+01 0.112E+02   0.902E+00 0.131E-01 -.491E-01   0.174E-04 -.146E-04 -.410E-05
   -.255E+03 0.492E+02 0.213E-01   0.251E+03 -.510E+02 -.383E-01   0.253E+01 0.716E+00 -.384E-01   0.360E-04 0.128E-04 0.293E-05
   -.311E+03 0.396E+01 0.416E+01   0.310E+03 -.395E+01 -.416E+01   0.872E+00 -.212E-02 0.494E-02   0.243E-04 -.930E-05 -.553E-05
[...]
   -.206E+03 -.982E-05 -.639E+00   0.206E+03 0.473E-04 0.629E+00   0.172E+00 -.587E-18 0.564E-02   0.241E-05 0.237E-07 -.202E-04
   -.203E+03 0.342E+01 -.479E+01   0.202E+03 -.345E+01 0.480E+01   0.225E+00 0.307E-01 -.315E-02   0.120E-04 0.264E-04 0.996E-05
   -.204E+03 0.448E+01 0.680E+00   0.204E+03 -.450E+01 -.683E+00   0.165E+00 -.533E-03 -.479E-02   0.125E-04 0.789E-05 -.987E-05
   -.311E+03 0.917E-04 0.384E+01   0.311E+03 -.814E-04 -.383E+01   0.844E+00 0.262E-17 0.255E-02   0.303E-04 0.391E-07 0.444E-05
   -.311E+03 -.632E+01 -.271E+01   0.310E+03 0.632E+01 0.274E+01   0.853E+00 -.134E-01 -.303E-01   0.304E-04 -.204E-04 0.339E-05
   -.303E+03 -.163E+02 0.133E+02   0.302E+03 0.163E+02 -.133E+02   0.892E+00 0.254E-01 0.421E-01   0.400E-04 -.137E-04 0.106E-04
   -.311E+03 -.280E+00 -.188E+01   0.311E+03 0.272E+00 0.188E+01   0.845E+00 0.298E-02 -.380E-03   0.155E-04 -.177E-04 -.759E-05
   -.284E+03 -.239E-04 -.387E+02   0.282E+03 0.101E-03 0.390E+02   0.150E+01 0.501E-17 -.182E+00   0.204E-04 -.856E-07 0.122E-04
   -.303E+03 0.163E+02 0.133E+02   0.302E+03 -.163E+02 -.133E+02   0.892E+00 -.254E-01 0.421E-01   0.400E-04 0.136E-04 0.107E-04
   -.311E+03 0.280E+00 -.188E+01   0.311E+03 -.272E+00 0.188E+01   0.845E+00 -.298E-02 -.380E-03   0.155E-04 0.177E-04 -.768E-05
   -.311E+03 0.632E+01 -.271E+01   0.310E+03 -.632E+01 0.274E+01   0.853E+00 0.134E-01 -.303E-01   0.303E-04 0.205E-04 0.336E-05
   -.312E+03 -.116E-03 0.924E+00   0.311E+03 0.204E-04 -.920E+00   0.829E+00 0.262E-17 0.919E-02   0.231E-04 0.812E-07 -.184E-04
   -.548E+03 -.123E-03 0.247E+03   0.556E+03 0.914E-03 -.300E+03   -.715E+01 -.267E-15 0.404E+02   -.117E-05 -.120E-06 -.137E-03
   -.547E+03 0.340E-02 -.247E+03   0.556E+03 -.850E-03 0.300E+03   -.750E+01 0.752E-15 -.402E+02   -.131E-05 -.137E-06 -.796E-04
   0.985E+01 0.215E-04 0.137E-01   0.352E-11 -.227E-13 0.000E+00   -.973E+01 0.325E-15 -.177E-01   -.987E-04 -.256E-06 -.218E-03

 POSITION                                       TOTAL-FORCE (eV/Angst)
      2.36204    -11.45372     -6.61281        -0.038315     -0.011612      0.005940
      2.36204    -14.31714    -11.57241         0.001658      0.002438      0.000373
      2.36204     -8.59029     -1.65320         0.002661      0.008699     -0.003867
      2.36204    -17.18057     -6.61281        -0.001552     -0.003373      0.007772
      2.36204    -20.04400    -11.57241        -0.010961     -0.015190      0.001947
      2.36204    -14.31714     -1.65320        -0.008972     -0.004493     -0.001210
      2.36204     -5.72686     -6.61281        -0.002213     -0.001642      0.014684
      2.36204     -8.59029    -11.57241        -0.008304      0.003460     -0.002296
      2.36204     -2.86343     -1.65320        -0.008788     -0.000567     -0.000026
      4.71078    -14.31714     -8.26601         0.008286      0.017404      0.012779
      4.71078    -17.18057    -13.22561        -0.019146      0.005108      0.005660
      4.71078    -11.45372     -3.30640        -0.006678      0.010801     -0.006554
      4.71078    -20.04400     -8.26601        -0.002278      0.016413     -0.001513
      4.71078    -22.90743    -13.22561        -0.005906      0.004075     -0.003144
      4.71078    -17.18057     -3.30640        -0.016119     -0.004784      0.005341
      4.71078     -8.59029     -8.26601        -0.006777      0.015101     -0.005833
      4.71078    -11.45372    -13.22561        -0.010257      0.002949      0.003648
      4.71078     -5.72686     -3.30640        -0.002542      0.002087     -0.001445
      7.01272    -17.18057     -9.91921         0.001676      0.001060     -0.008034
      7.01272    -11.45372      0.00000         0.011845      0.007868      0.001467
      7.01272    -14.31714     -4.95960         0.005495      0.026266     -0.012479
      7.01272     -5.72686     -9.91921         0.003887     -0.007431      0.005784
      7.01272      0.00000      0.00000        -0.000839      0.000602     -0.016379
      7.01272     -2.86343     -4.95960         0.010534      0.010664     -0.007751
      7.01272    -11.45372     -9.91921         0.006143     -0.000158      0.020529
      7.01272     -5.72686      0.00000         0.000268     -0.003438      0.001077
      7.01272     -8.59029     -4.95960         0.019415      0.004116      0.006637
      9.35192    -20.04400    -11.57241        -0.017496     -0.009158     -0.012123
      9.35192    -14.31714     -1.65320         0.003064     -0.003059      0.002812
      9.35192    -17.18057     -6.61281         0.008112     -0.004335      0.001092
      9.35192     -8.59029    -11.57241        -0.004521      0.000295      0.018175
      9.35192     -2.86343     -1.65320         0.001298     -0.009375      0.004098
      9.35192     -5.72686     -6.61281         0.004609     -0.035391     -0.003773
      9.35192    -14.31714    -11.57241         0.004313      0.002256     -0.006512
      9.35192     -8.59029     -1.65320        -0.010199     -0.003533     -0.015580
      9.35192    -11.45372     -6.61281         0.000349     -0.022222      0.003334
     11.69112    -22.90743    -13.22561        -0.006284     -0.006435      0.007600
     11.69112    -17.18057     -3.30640         0.001483      0.019478     -0.012257
     11.69112    -20.04400     -8.26601         0.011945     -0.017452     -0.001573
     11.69112    -11.45372    -13.22561         0.001468      0.000616      0.007755
     11.69112     -5.72686     -3.30640        -0.014724     -0.003358     -0.005191
     11.69112     -8.59029     -8.26601        -0.060591     -0.015751     -0.000753
     11.69112    -17.18057    -13.22561         0.009898      0.005687     -0.023409
     11.69112    -11.45372     -3.30640         0.003368     -0.002354     -0.032655
     11.69112    -14.31714     -8.26601         0.004012      0.028216      0.005819
     13.99306      0.00000      0.00000         0.002887     -0.002357      0.012297
     13.99306     -2.86343     -4.95960         0.004205     -0.011536      0.004876
     13.99306     -5.72686     -9.91921         0.003814      0.029502     -0.008845
     13.99306     -5.72686      0.00000         0.004631     -0.000025     -0.005679
     13.99306     -8.59029     -4.95960        -0.107505      0.007642      0.004035
     13.99306    -11.45372     -9.91921        -0.009814      0.024884      0.022582
     13.99306    -11.45372      0.00000        -0.001182     -0.003497      0.009602
     13.99306    -14.31714     -4.95960         0.021779      0.016344     -0.008617
     13.99306    -17.18057     -9.91921        -0.015272      0.018442      0.015046
     16.34180     -2.86343     -1.65320        -0.014495     -0.018302      0.009483
     16.34180     -5.72686     -6.61281         0.038918     -0.000604     -0.012119
     16.34180     -8.59029    -11.57241         0.037691      0.005483     -0.001913
     16.34180     -8.59029     -1.65320         0.031494      0.003364     -0.003730
     16.34180    -11.45372     -6.61281        -1.245044     -1.048236     -0.055277
     16.34180    -14.31714    -11.57241         0.011646      0.009728     -0.000048
[...]
     13.99306    -10.02200     -7.43941         0.136619     -0.000000      0.060613
     13.99306    -18.61229    -12.39901        -0.011572     -0.000000     -0.004396
     13.99306    -12.88543     -2.47980         0.004603      0.000070      0.010384
     13.99306    -15.74886     -7.43941         0.012899     -0.021998     -0.007488
     16.34180    -10.02200    -14.05221         0.005067     -0.000000      0.011592
     16.34180     -4.29514     -4.13300         0.013276     -0.010033     -0.001209
     16.34180     -7.15857     -9.09261         0.011417     -0.038476      0.022428
     16.34180    -15.74886    -14.05221         0.006568     -0.004717     -0.003890
     16.34180    -10.02200     -4.13300        -0.308421      0.000000      0.176617
     16.34180    -12.88543     -9.09261         0.011417      0.038476      0.022428
     16.34180    -21.47572    -14.05221         0.006568      0.004717     -0.003890
     16.34180    -15.74886     -4.13300         0.013276      0.010033     -0.001209
     16.34180    -18.61229     -9.09261         0.004564     -0.000000      0.012854
     18.04000    -10.02200     -7.16000         1.673392     -0.000000    -12.784284
     18.04000    -10.02200     -6.06300         1.469479      0.000000     12.705248
    total drift:                                0.120620      0.000021     -0.004164

  FREE ENERGIE OF THE ION-ELECTRON SYSTEM (eV)
  free  energy   TOTEN  =      -933.20175351 eV

  energy  without entropy=     -933.15335746  energy(sigma->0) =     -933.17755549