 vasp.5.4.4.18Apr17-6-g9f103f2a35 (build May 02 2017 15:33:50) complex

 executed on Intel-16.0.3.210-OMP date 2018.08.09  01:10:08

 INCAR:
 POTCAR:    PAW Ni_GW 31Mar2010
 POTCAR:    PAW_PBE N 08Apr2002

 POTCAR:    PAW Ni_GW 31Mar2010
   VRHFIN =Ni:

   TITEL  = PAW Ni_GW 31Mar2010
   POMASS =   58.690; ZVAL   =   10.000    mass and valenz
   ENMAX  =  357.323; ENMIN  =  267.992 eV

 POTCAR:    PAW_PBE N 08Apr2002
   VRHFIN =N: s2p3

   TITEL  = PAW_PBE N 08Apr2002
   POMASS =   14.001; ZVAL   =    5.000    mass and valenz
   ENMAX  =  400.000; ENMIN  =  300.000 eV

 Optimization of the real space projectors (new method)

 maximal supplied QI-value         = 16.25
 optimisation between [QCUT,QGAM] = [  8.78, 17.71] = [ 21.57, 87.87] Ry
 Optimized for a Real-space Cutoff    1.55 Angstroem

   l    n(q)    QCUT    max X(q) W(low)/X(q) W(high)/X(q)  e(spline)
   2      7     8.776    90.918    0.49E-03    0.31E-03    0.19E-06
   2      7     8.776    88.873    0.50E-03    0.32E-03    0.19E-06
   0      8     8.776    17.118    0.77E-04    0.31E-04    0.38E-07
   0      8     8.776     8.062    0.82E-04    0.33E-04    0.42E-07
   1      8     8.776     4.910    0.92E-04    0.24E-03    0.96E-07
   1      8     8.776     3.344    0.63E-04    0.17E-03    0.76E-07
   3      7     8.776     5.513    0.45E-03    0.35E-03    0.68E-07
 Optimization of the real space projectors (new method)

 maximal supplied QI-value         = 25.13
 optimisation between [QCUT,QGAM] = [  8.80, 17.59] = [ 21.67, 86.68] Ry
 Optimized for a Real-space Cutoff    2.14 Angstroem

   l    n(q)    QCUT    max X(q) W(low)/X(q) W(high)/X(q)  e(spline)
   0     11     8.797    79.467    0.70E-04    0.19E-04    0.19E-05
   0     11     8.797    66.151    0.68E-04    0.18E-04    0.19E-05
   1     11     8.797     6.738    0.26E-03    0.11E-02    0.73E-05
   1     11     8.797     5.013    0.25E-03    0.11E-02    0.72E-05
  PAW Ni_GW 31Mar2010                   :
  PAW_PBE N 08Apr2002                   :

 POSCAR: New structure
  positions in cartesian coordinates
 exchange correlation table for  LEXCH =        8
   RHO(1)=    0.500       N(1)  =     2000
   RHO(2)=  100.500       N(2)  =     4000

 ion  position               nearest neighbor table
   1  0.444  0.444  0.104-  73 2.47 199 2.47 136 2.47 190 2.52  65 2.52 127 2.52 130 2.52  67 2.52
                           191 2.52
   2  0.444  0.778  0.104-  74 2.47 200 2.47 137 2.47 191 2.52  66 2.52 131 2.52 128 2.52 192 2.52
                            68 2.52
   3  0.444  0.111  0.104- 138 2.47  75 2.47 201 2.47  64 2.52 190 2.52 132 2.52 129 2.52 192 2.52
                            69 2.52
   4  0.778  0.444  0.104-  76 2.47 202 2.47 139 2.47 193 2.52  68 2.52 130 2.52 133 2.52  70 2.52
                           194 2.52
   5  0.778  0.778  0.104-  77 2.47 203 2.47 140 2.47 194 2.52  69 2.52 134 2.52 131 2.52 195 2.52
                            71 2.52
   6  0.778  0.111  0.104- 141 2.47  78 2.47 204 2.47  67 2.52 193 2.52 135 2.52 132 2.52 195 2.52
                            72 2.52
   7  0.111  0.444  0.104-  79 2.47 205 2.47 142 2.47 196 2.52  71 2.52 127 2.52 133 2.52  64 2.52
                           197 2.52
   8  0.111  0.778  0.104-  80 2.47 206 2.47 143 2.47 197 2.52  72 2.52 128 2.52 134 2.52 198 2.52
                            65 2.52
   9  0.111  0.111  0.104- 144 2.47  81 2.47 207 2.47  70 2.52 196 2.52 129 2.52 198 2.52 135 2.52
                            66 2.52
  10  0.556  0.556  0.173- 191 2.47  68 2.47 130 2.47  82 2.48 208 2.48 145 2.48  74 2.52 199 2.52
                           139 2.52 136 2.52 200 2.52  76 2.52
  11  0.556  0.889  0.173- 192 2.47  69 2.47 131 2.47 146 2.48  83 2.48 209 2.48  75 2.52 201 2.52
                           200 2.52 137 2.52 140 2.52  77 2.52
  12  0.556  0.222  0.173- 190 2.47 132 2.47  67 2.47  84 2.48 210 2.48 147 2.48 201 2.52  73 2.52
                           138 2.52 141 2.52 199 2.52  78 2.52
  13  0.889  0.556  0.173- 194 2.47  71 2.47 133 2.47  85 2.48 148 2.48 211 2.48  77 2.52 202 2.52
                           139 2.52 142 2.52 203 2.52  79 2.52
  14  0.889  0.889  0.173- 195 2.47  72 2.47 134 2.47 149 2.48  86 2.48 212 2.48  78 2.52 204 2.52
                           203 2.52 140 2.52 143 2.52  80 2.52
  15  0.889  0.222  0.173- 193 2.47 135 2.47  70 2.47  87 2.48 150 2.48 213 2.48 204 2.52  76 2.52
                           141 2.52 144 2.52 202 2.52  81 2.52
  16  0.222  0.556  0.173- 197 2.47  65 2.47 127 2.47  88 2.48 214 2.48 151 2.48  80 2.52 205 2.52
                           136 2.52 142 2.52 206 2.52  73 2.52
  17  0.222  0.889  0.173- 198 2.47  66 2.47 128 2.47 152 2.48  89 2.48 215 2.48  81 2.52 207 2.52
                           206 2.52 143 2.52 137 2.52  74 2.52
  18  0.222  0.222  0.173- 196 2.47 129 2.47  64 2.47  90 2.48 216 2.48 153 2.48 207 2.52  79 2.52
                           144 2.52 138 2.52 205 2.52  75 2.52
  19  0.667  0.667  0.242- 154 2.48  91 2.48 217 2.48 200 2.48  77 2.48 139 2.48  83 2.52 209 2.52
                           208 2.52 145 2.52 148 2.52  85 2.52
  20  0.667  0.000  0.242-  92 2.48 218 2.48 155 2.48 201 2.48 140 2.48  78 2.48  84 2.52 146 2.52
                           149 2.52 209 2.52 210 2.52  86 2.52
  21  0.667  0.333  0.242- 156 2.48  93 2.48 219 2.48 199 2.48  76 2.48 141 2.48 210 2.52  82 2.52
                           150 2.52 147 2.52  87 2.52 208 2.52
  22  1.000  0.667  0.242- 157 2.48  94 2.48 220 2.48 203 2.48  80 2.48 142 2.48  86 2.52 212 2.52
                           211 2.52 151 2.52 148 2.52  88 2.52
  23  0.000  0.000  0.242-  95 2.48 221 2.48 158 2.48 204 2.48 143 2.48  81 2.48  87 2.52 152 2.52
                           212 2.52 149 2.52 213 2.52  89 2.52
  24  1.000  0.333  0.242- 159 2.48  96 2.48 222 2.48 202 2.48  79 2.48 144 2.48 213 2.52  85 2.52
                           153 2.52 150 2.52  90 2.52 211 2.52
  25  0.333  0.667  0.242- 160 2.48  97 2.48 223 2.48 206 2.48  74 2.48 136 2.48  89 2.52 215 2.52
                           214 2.52 151 2.52 145 2.52  82 2.52
  26  0.333  0.000  0.242-  98 2.48 224 2.48 161 2.48 207 2.48 137 2.48  75 2.48  90 2.52 152 2.52
                           146 2.52 215 2.52 216 2.52  83 2.52
  27  0.333  0.333  0.242- 162 2.48  99 2.48 225 2.48 205 2.48  73 2.48 138 2.48 216 2.52  88 2.52
                           147 2.52 153 2.52  84 2.52 214 2.52
  28  0.778  0.778  0.312- 209 2.48 100 2.48 148 2.48  86 2.48 226 2.48 163 2.48 217 2.52  92 2.52
                           157 2.52 154 2.52 218 2.52  94 2.52
  29  0.778  0.111  0.312- 210 2.48 164 2.48 101 2.48  87 2.48 149 2.48 227 2.48  93 2.52 219 2.52
                           155 2.52 158 2.52 218 2.52  95 2.52
  30  0.778  0.444  0.312- 102 2.48 150 2.48 208 2.48 228 2.48 165 2.48  85 2.48 219 2.52  91 2.52
                           156 2.52 159 2.52  96 2.52 217 2.52
  31  0.111  0.778  0.312- 212 2.48 103 2.48 151 2.48  89 2.48 229 2.48 166 2.48 220 2.52  95 2.52
                           160 2.52 157 2.52 221 2.52  97 2.52
  32  0.111  0.111  0.312- 213 2.48 167 2.48 104 2.48  90 2.48 152 2.48 230 2.48  96 2.52 222 2.52
                           161 2.52 221 2.52 158 2.52  98 2.52
  33  0.111  0.444  0.312- 105 2.48 153 2.48 211 2.48 231 2.48 168 2.48  88 2.48 222 2.52  94 2.52
                           162 2.52 159 2.52  99 2.52 220 2.52
  34  0.444  0.778  0.312- 215 2.48 106 2.48 145 2.48  83 2.48 232 2.48 169 2.48 223 2.52  98 2.52
                           154 2.52 160 2.52 224 2.52  91 2.52
  35  0.444  0.111  0.312- 216 2.48 170 2.48 107 2.48  84 2.48 146 2.48 233 2.48  99 2.52 225 2.52
                           155 2.52 161 2.52 224 2.52  92 2.52
  36  0.444  0.444  0.312- 108 2.48 147 2.48 214 2.48 234 2.48 171 2.48  82 2.48 225 2.52  97 2.52
                           162 2.52 156 2.52  93 2.52 223 2.52
  37  0.889  0.889  0.381- 218 2.48  95 2.48 157 2.48 172 2.48 109 2.48 235 2.48 101 2.52 227 2.52
                           226 2.52 163 2.52 166 2.52 103 2.52
  38  0.889  0.222  0.381- 219 2.48 158 2.48  96 2.48 110 2.48 173 2.48 236 2.48 227 2.52 102 2.52
                           164 2.52 167 2.52 228 2.52 104 2.52
  39  0.889  0.556  0.381- 217 2.48  94 2.48 159 2.48 111 2.48 174 2.48 237 2.48 100 2.52 228 2.52
                           165 2.52 168 2.52 226 2.52 105 2.52
  40  0.222  0.889  0.381- 221 2.48  98 2.48 160 2.48 175 2.48 112 2.48 238 2.48 104 2.52 230 2.52
                           229 2.52 169 2.52 166 2.52 106 2.52
  41  0.222  0.222  0.381- 222 2.48 161 2.48  99 2.48 113 2.48 239 2.48 176 2.48 230 2.52 105 2.52
                           167 2.52 170 2.52 231 2.52 107 2.52
  42  0.222  0.556  0.381- 220 2.48  97 2.48 162 2.48 114 2.48 240 2.48 177 2.48 103 2.52 231 2.52
                           171 2.52 168 2.52 229 2.52 108 2.52
  43  0.556  0.889  0.381- 224 2.48  92 2.48 154 2.48 178 2.48 115 2.48 241 2.48 107 2.52 233 2.52
                           232 2.52 169 2.52 163 2.52 100 2.52
  44  0.556  0.222  0.381- 225 2.48 155 2.48  93 2.48 116 2.48 242 2.48 179 2.48 233 2.52 108 2.52
                           170 2.52 164 2.52 234 2.52 101 2.52
  45  0.556  0.556  0.381- 223 2.48  91 2.48 156 2.48 117 2.48 243 2.48 180 2.48 106 2.52 234 2.52
                           165 2.52 171 2.52 232 2.52 102 2.52
  46  0.000  0.000  0.450- 118 2.47 244 2.47 181 2.47 227 2.48 166 2.48 104 2.48 110 2.52 175 2.52
                           235 2.52 172 2.52 236 2.52 112 2.52
  47  1.000  0.333  0.450- 182 2.47 119 2.47 245 2.47 228 2.48 105 2.48 167 2.48 236 2.52 111 2.52
                           176 2.52 173 2.52 113 2.52 237 2.52
  48  1.000  0.667  0.450- 183 2.47 120 2.47 246 2.47 226 2.48 103 2.48 168 2.48 109 2.52 235 2.52
                           237 2.52 177 2.52 174 2.52 114 2.52
  49  0.333  0.000  0.450- 121 2.47 247 2.47 184 2.47 230 2.48 169 2.48 107 2.48 113 2.52 175 2.52
                           178 2.52 238 2.52 239 2.52 115 2.52
  50  0.333  0.333  0.450- 185 2.47 122 2.47 248 2.47 231 2.48 108 2.48 170 2.48 239 2.52 114 2.52
                           179 2.52 176 2.52 116 2.52 240 2.52
  51  0.333  0.667  0.450- 186 2.47 123 2.47 249 2.47 229 2.48 106 2.48 171 2.48 112 2.52 238 2.52
                           240 2.52 177 2.52 180 2.52 117 2.52
  52  0.667  0.000  0.450- 124 2.47 250 2.47 187 2.47 233 2.48 163 2.48 101 2.48 116 2.52 178 2.52
                           172 2.52 241 2.52 242 2.52 109 2.52
  53  0.667  0.333  0.450- 188 2.47 125 2.47 251 2.47 234 2.48 102 2.48 164 2.48 242 2.52 117 2.52
                           173 2.52 179 2.52 110 2.52 243 2.52
  54  0.667  0.667  0.450- 189 2.47 126 2.47 252 2.47 232 2.48 100 2.48 165 2.48 115 2.52 241 2.52
                           243 2.52 180 2.52 174 2.52 111 2.52
  55  0.111  0.111  0.519- 236 2.47 113 2.47 175 2.47 119 2.52 245 2.52 184 2.52 244 2.52 181 2.52
                           121 2.52
  56  0.111  0.444  0.519- 176 2.47 237 2.47 114 2.47 245 2.52 120 2.52 185 2.52 182 2.52 122 2.52
                           246 2.52
  57  0.111  0.778  0.519- 235 2.47 177 2.47 112 2.47 246 2.52 118 2.52 186 2.52 183 2.52 244 2.52
                           123 2.52
[...]
    29.000000000  0.000000000  0.000000000     0.034482759  0.000000000  0.000000000

  length of vectors
    15.146221759 15.146221759 29.000000000     0.076236870  0.076236870  0.034482759

 FORCES acting on ions
    electron-ion (+dipol)            ewald-force                    non-local-force                 convergence-correction
   0.506E+04 -.370E+00 -.104E-01   -.506E+04 0.194E+00 -.110E-02   -.189E+01 0.450E-02 0.192E-02   -.439E+00 0.175E+00 0.115E-01
   0.506E+04 0.354E+00 0.678E+00   -.506E+04 -.967E-01 -.348E+00   -.190E+01 -.735E-03 -.361E-03   -.324E+00 -.256E+00 -.330E+00
   0.506E+04 -.478E+00 -.372E+00   -.506E+04 0.189E+00 0.185E+00   -.189E+01 0.629E-03 -.371E-02   -.290E+00 0.287E+00 0.187E+00
   0.506E+04 0.793E+00 0.173E+00   -.506E+04 -.385E+00 -.858E-03   -.190E+01 -.239E-04 -.757E-03   -.362E+00 -.408E+00 -.171E+00
   0.506E+04 0.144E+00 -.256E+00   -.506E+04 -.941E-01 -.161E-01   -.190E+01 0.135E-03 0.747E-03   -.188E+00 -.500E-01 0.270E+00
   0.506E+04 0.101E+00 -.527E+00   -.506E+04 -.971E-01 0.352E+00   -.189E+01 0.416E-02 -.194E-02   -.328E+00 -.416E-02 0.176E+00
   0.506E+04 -.430E+00 0.159E+00   -.506E+04 0.190E+00 -.146E-02   -.189E+01 -.367E-02 0.179E-02   -.248E+00 0.240E+00 -.157E+00
   0.506E+04 -.495E+00 0.132E+00   -.506E+04 0.190E+00 -.182E+00   -.189E+01 0.450E-03 0.530E-02   -.228E+00 0.304E+00 0.474E-01
   0.506E+04 0.393E+00 0.241E-01   -.506E+04 -.930E-01 0.200E-01   -.189E+01 -.542E-02 -.214E-02   -.137E+00 -.297E+00 -.438E-01
   0.338E+04 0.377E+00 0.269E+00   -.338E+04 -.146E+00 -.162E+00   -.139E+00 -.809E-03 0.147E-03   0.871E+00 -.229E+00 -.108E+00
   0.338E+04 0.669E-01 0.491E-01   -.338E+04 -.536E-01 -.558E-01   -.138E+00 -.390E-03 0.361E-03   0.641E+00 -.139E-01 0.576E-02
   0.338E+04 -.242E+00 -.431E+00   -.338E+04 0.118E+00 0.265E+00   -.128E+00 -.305E-02 0.147E-02   0.978E+00 0.125E+00 0.168E+00
   0.338E+04 0.345E+00 0.267E+00   -.338E+04 -.145E+00 -.541E-01   -.137E+00 0.525E-03 -.970E-03   0.460E+00 -.200E+00 -.211E+00
   0.338E+04 -.116E+00 -.417E+00   -.338E+04 0.241E-01 0.943E-01   -.139E+00 0.329E-02 0.212E-02   0.106E+01 0.907E-01 0.320E+00
   0.338E+04 0.503E+00 -.256E+00   -.338E+04 -.236E+00 0.165E+00   -.138E+00 0.163E-03 -.298E-02   0.101E+01 -.267E+00 0.915E-01
   0.338E+04 -.704E+00 0.202E+00   -.338E+04 0.289E+00 -.108E+00   -.128E+00 -.284E-03 -.350E-02   0.931E+00 0.415E+00 -.939E-01
   0.338E+04 0.613E-01 0.571E+00   -.338E+04 0.269E-01 -.206E+00   -.139E+00 -.222E-02 0.667E-03   0.106E+01 -.869E-01 -.364E+00
   0.338E+04 -.266E+00 -.225E+00   -.338E+04 0.116E+00 0.651E-01   -.128E+00 0.299E-02 0.237E-02   0.731E+00 0.150E+00 0.159E+00
   0.170E+04 0.590E+00 0.401E+00   -.170E+04 -.410E+00 -.287E+00   0.102E-01 0.952E-04 0.912E-04   0.142E+01 -.179E+00 -.114E+00
   0.170E+04 0.155E+00 -.546E+00   -.170E+04 0.472E-01 0.361E+00   0.363E-02 0.168E-02 0.142E-02   0.174E+01 -.200E+00 0.185E+00
   0.170E+04 0.358E+00 -.497E+00   -.170E+04 -.259E+00 0.287E+00   0.317E-03 -.195E-03 -.209E-02   0.187E+01 -.981E-01 0.209E+00
   0.170E+04 -.186E+00 0.330E+00   -.170E+04 0.201E+00 -.111E+00   0.294E-02 0.120E-02 0.135E-03   0.144E+01 -.129E-01 -.217E+00
   0.170E+04 0.104E+00 -.196E+00   -.170E+04 -.914E-01 0.101E+00   0.135E-01 0.427E-04 0.227E-03   0.189E+01 -.131E-01 0.947E-01
   0.170E+04 0.326E+00 -.281E+00   -.170E+04 -.249E+00 0.930E-01   0.466E-02 -.206E-03 -.109E-02   0.151E+01 -.777E-01 0.186E+00
   0.170E+04 -.423E+00 0.691E+00   -.170E+04 0.208E+00 -.466E+00   0.340E-02 -.818E-03 0.129E-02   0.174E+01 0.214E+00 -.225E+00
   0.170E+04 -.270E+00 0.254E+00   -.170E+04 0.427E-01 -.158E+00   0.343E-02 -.122E-02 -.297E-03   0.142E+01 0.225E+00 -.954E-01
   0.170E+04 -.679E+00 -.184E+00   -.170E+04 0.506E+00 0.189E+00   0.117E-01 -.921E-04 -.290E-03   0.151E+01 0.173E+00 -.423E-02
   0.114E+02 0.550E+00 0.248E+00   -.132E+02 -.302E+00 -.558E-01   -.319E-01 -.754E-03 -.764E-03   0.175E+01 -.246E+00 -.191E+00
   0.125E+02 0.485E+00 -.143E+01   -.144E+02 -.332E+00 0.119E+01   -.323E-01 -.373E-02 0.146E-02   0.188E+01 -.153E+00 0.243E+00
   0.128E+02 0.129E+01 -.183E+00   -.148E+02 -.132E+01 -.346E-03   -.323E-01 0.300E-04 0.171E-02   0.193E+01 0.353E-01 0.181E+00
   0.121E+02 -.776E+00 0.957E+00   -.137E+02 0.632E+00 -.613E+00   -.323E-01 0.366E-03 -.435E-02   0.160E+01 0.143E+00 -.343E+00
   0.114E+02 0.159E+00 -.201E+00   -.132E+02 -.301E+00 0.588E-01   -.318E-01 0.295E-02 0.143E-02   0.178E+01 0.142E+00 0.142E+00
   0.118E+02 -.727E+00 0.141E-01   -.135E+02 0.633E+00 -.120E-02   -.319E-01 0.263E-02 -.112E-02   0.169E+01 0.942E-01 -.130E-01
   0.124E+02 0.225E+00 0.136E+01   -.144E+02 -.332E+00 -.118E+01   -.317E-01 0.333E-03 -.107E-02   0.191E+01 0.106E+00 -.177E+00
   0.119E+02 -.647E+00 -.749E+00   -.137E+02 0.631E+00 0.616E+00   -.316E-01 0.769E-03 0.329E-02   0.181E+01 0.153E-01 0.133E+00
   0.142E+02 -.587E+00 -.294E-01   -.161E+02 0.690E+00 -.682E-03   -.284E-01 -.253E-02 -.820E-03   0.188E+01 -.102E+00 0.289E-01
   -.167E+04 -.200E+00 -.674E+00   0.167E+04 0.217E+00 0.910E+00   0.216E-01 -.279E-03 0.640E-03   0.120E+01 -.180E-01 -.236E+00
   -.167E+04 0.250E+01 -.197E+01   0.167E+04 -.252E+01 0.180E+01   0.205E-01 -.101E-02 -.256E-04   0.148E+01 0.265E-01 0.178E+00
   -.167E+04 0.147E+01 0.511E+00   0.167E+04 -.147E+01 -.525E+00   0.210E-01 0.815E-02 -.454E-02   0.159E+01 -.222E-02 0.146E-01
   -.167E+04 -.350E+00 0.229E+01   0.167E+04 0.317E+00 -.215E+01   0.210E-01 0.456E-03 -.219E-03   0.141E+01 0.331E-01 -.142E+00
   -.167E+04 -.138E+01 -.761E+00   0.167E+04 0.116E+01 0.642E+00   0.217E-01 0.523E-03 0.608E-03   0.165E+01 0.220E+00 0.119E+00
   -.167E+04 -.314E+01 0.127E+01   0.167E+04 0.321E+01 -.119E+01   0.202E-01 0.792E-03 -.146E-02   0.152E+01 -.729E-01 -.736E-01
   -.167E+04 0.551E+00 0.627E+00   0.167E+04 -.535E+00 -.602E+00   0.211E-01 -.996E-04 0.938E-02   0.166E+01 -.154E-01 -.265E-01
   -.167E+04 -.112E+01 -.319E+01   0.167E+04 0.138E+01 0.307E+01   0.196E-01 0.386E-03 0.207E-02   0.175E+01 -.254E+00 0.115E+00
   -.167E+04 0.173E+01 0.192E+01   0.166E+04 -.177E+01 -.195E+01   0.207E-01 -.953E-02 -.481E-02   0.193E+01 0.378E-01 0.361E-01
   -.336E+04 0.123E+01 -.132E+01   0.336E+04 -.127E+01 0.146E+01   0.203E+00 0.802E-04 0.600E-03   0.420E+00 0.391E-01 -.144E+00
   -.336E+04 0.356E+01 -.132E+01   0.336E+04 -.349E+01 0.120E+01   0.201E+00 0.112E-03 0.100E-02   0.660E+00 -.675E-01 0.119E+00
   -.336E+04 -.283E+01 0.147E+01   0.336E+04 0.270E+01 -.146E+01   0.201E+00 0.431E-04 -.159E-02   0.717E+00 0.135E+00 -.564E-02
   -.336E+04 -.413E+00 0.208E+01   0.336E+04 0.450E+00 -.210E+01   0.201E+00 0.514E-03 -.759E-04   0.737E+00 -.369E-01 0.218E-01
   -.335E+04 -.830E+01 -.328E+01   0.335E+04 0.845E+01 0.311E+01   0.196E+00 -.410E-03 0.286E-04   0.108E+01 -.146E+00 0.161E+00
   -.335E+04 -.347E+01 0.839E+01   0.334E+04 0.387E+01 -.851E+01   0.202E+00 0.110E-02 -.441E-03   0.987E+00 -.394E+00 0.120E+00
   -.336E+04 -.801E+00 -.504E+01   0.335E+04 0.828E+00 0.521E+01   0.201E+00 -.692E-03 0.617E-03   0.740E+00 -.269E-01 -.174E+00
   -.334E+04 0.506E+01 -.565E+01   0.334E+04 -.525E+01 0.573E+01   0.198E+00 -.768E-03 -.159E-02   0.833E+00 0.185E+00 -.705E-01
   -.335E+04 0.612E+01 0.459E+01   0.335E+04 -.641E+01 -.456E+01   0.195E+00 0.208E-03 -.433E-03   0.745E+00 0.288E+00 -.297E-01
   -.504E+04 0.339E+01 -.632E+00   0.504E+04 -.324E+01 0.699E+00   0.184E+01 -.107E-02 -.858E-03   -.287E+00 -.148E+00 -.659E-01
   -.504E+04 -.816E+01 -.178E+00   0.504E+04 0.818E+01 -.674E-03   0.183E+01 -.212E-02 0.200E-02   -.174E+00 -.202E-01 0.178E+00
   -.504E+04 -.838E+01 0.853E+01   0.504E+04 0.856E+01 -.860E+01   0.183E+01 -.279E-03 0.160E-03   -.109E+00 -.179E+00 0.659E-01
   -.504E+04 -.845E+01 -.849E+01   0.504E+04 0.856E+01 0.860E+01   0.183E+01 -.104E-03 -.250E-02   -.237E+00 -.103E+00 -.103E+00
   -.498E+04 -.210E+02 -.371E-01   0.498E+04 0.212E+02 0.257E-02   0.191E+01 -.150E-01 0.273E-02   -.280E+00 -.177E+00 0.355E-01
   -.503E+04 0.572E+01 0.194E+02   0.503E+04 -.581E+01 -.196E+02   0.184E+01 -.302E-02 0.418E-02   -.343E+00 0.919E-01 0.189E+00
[...]
   -.336E+04 0.188E+01 0.855E+00   0.336E+04 -.198E+01 -.705E+00   0.201E+00 -.909E-03 0.740E-03   0.658E+00 0.961E-01 -.149E+00
   -.335E+04 -.278E-01 -.919E+01   0.335E+04 0.119E-02 0.928E+01   0.197E+00 0.385E-03 -.699E-03   0.824E+00 0.260E-01 -.915E-01
   -.334E+04 0.855E+01 0.244E+01   0.334E+04 -.889E+01 -.243E+01   0.202E+00 0.143E-02 0.143E-02   0.840E+00 0.337E+00 -.807E-02
   -.504E+04 -.376E+00 0.441E+01   0.504E+04 0.524E+00 -.442E+01   0.183E+01 -.302E-02 0.239E-02   -.212E+00 -.146E+00 0.160E-01
   -.504E+04 0.115E+00 -.220E+01   0.504E+04 -.540E-03 0.219E+01   0.184E+01 0.353E-03 -.414E-03   -.315E+00 -.114E+00 0.967E-02
   -.504E+04 -.131E+02 0.537E+01   0.504E+04 0.132E+02 -.555E+01   0.183E+01 -.322E-03 0.223E-03   -.465E-01 -.670E-01 0.185E+00
   -.504E+04 0.516E+00 0.443E+01   0.504E+04 -.522E+00 -.442E+01   0.183E+01 0.279E-02 0.196E-02   -.266E+00 0.628E-02 -.322E-02
   -.502E+04 -.206E+02 -.166E+02   0.501E+04 0.208E+02 0.167E+02   0.184E+01 -.660E-02 0.183E-02   -.227E+00 -.177E+00 -.311E-01
   -.500E+04 0.268E-01 0.267E+02   0.499E+04 0.497E-02 -.268E+02   0.185E+01 -.228E-04 0.292E-02   -.371E+00 -.314E-01 0.138E+00
   -.504E+04 -.120E+00 -.868E+01   0.504E+04 0.218E-03 0.894E+01   0.184E+01 0.335E-03 -.464E-02   -.265E+00 0.119E+00 -.261E+00
   -.502E+04 0.205E+02 -.166E+02   0.501E+04 -.208E+02 0.167E+02   0.184E+01 0.683E-02 0.123E-02   -.323E+00 0.296E+00 -.101E+00
   -.504E+04 0.130E+02 0.553E+01   0.504E+04 -.132E+02 -.555E+01   0.183E+01 0.127E-03 0.691E-03   -.211E+00 0.115E+00 0.301E-01
   -.178E+04 -.733E-02 -.151E+03   0.178E+04 -.356E-06 0.168E+03   -.117E+00 -.934E-03 -.318E+02   -.422E+00 0.152E-01 0.939E-02
   -.178E+04 -.172E-01 0.151E+03   0.178E+04 0.107E-04 -.168E+03   -.126E+00 0.238E-02 0.318E+02   -.423E+00 0.889E-02 -.207E-02
   -.219E+03 -.243E-01 -.489E-02   -.230E-10 0.138E-12 0.227E-12   0.760E-03 0.152E-02 0.337E-02   0.219E+03 0.241E-01 0.720E-02

 POSITION                                       TOTAL-FORCE (eV/Angst)
      3.02601    -10.09748     -5.82978        -0.009147      0.003386      0.001850
      3.02601    -12.62185    -10.20212        -0.016199      0.000099      0.000906
      3.02601     -7.57311     -1.45745        -0.010917     -0.001155     -0.003917
      3.02601    -15.14622     -5.82978        -0.013826      0.000159      0.000083
      3.02601    -17.67059    -10.20212        -0.012299      0.000411     -0.000862
      3.02601    -12.62185     -1.45745        -0.010941      0.003467     -0.001364
      3.02601     -5.04874     -5.82978        -0.010837     -0.003401      0.002490
      3.02601     -7.57311    -10.20212        -0.011506     -0.000579      0.003399
      3.02601     -2.52437     -1.45745        -0.009589     -0.002775     -0.001951
      5.02238    -12.62185     -7.28723         0.036893      0.000139     -0.000591
      5.02238    -15.14622    -11.65957         0.039937     -0.001035     -0.000625
      5.02238    -10.09748     -2.91489         0.046947     -0.002692      0.002894
      5.02238    -17.67059     -7.28723         0.041122      0.000635      0.001103
      5.02238    -20.19496    -11.65957         0.037045      0.002105     -0.000920
      5.02238    -15.14622     -2.91489         0.037379      0.000111     -0.001807
      5.02238     -7.57311     -7.28723         0.047482     -0.000961     -0.003590
      5.02238    -10.09748    -11.65957         0.037301     -0.000939      0.002158
      5.02238     -5.04874     -2.91489         0.048092      0.002319      0.001109
      7.03247    -15.14622     -8.74468         0.027776      0.000237      0.000424
      7.03247    -10.09748      0.00000         0.019044      0.003756      0.000677
      7.03247    -12.62185     -4.37234         0.013816      0.000697     -0.002985
      7.03247    -20.19496     -8.74468         0.020606      0.002477      0.002429
      7.03247      0.00000      0.00000         0.028555     -0.000082     -0.000138
      7.03247    -17.67059     -4.37234         0.021250     -0.000749     -0.003448
      7.03247    -10.09748     -8.74468         0.019146     -0.002173      0.001981
      7.03247     -5.04874      0.00000         0.021240     -0.003465      0.000219
      7.03247     -7.57311     -4.37234         0.028231      0.000100      0.000775
      9.04019    -17.67059    -10.20212        -0.034219      0.000505      0.000487
      9.04019    -12.62185     -1.45745        -0.034692     -0.003754      0.001881
      9.04019    -15.14622     -5.82978        -0.033729     -0.001182     -0.000146
      9.04019     -7.57311    -10.20212        -0.033870     -0.000444     -0.003674
      9.04019     -2.52437     -1.45745        -0.034377      0.003390      0.001111
      9.04019     -5.04874     -5.82978        -0.033857      0.003494     -0.001254
      9.04019    -12.62185    -10.20212        -0.034148     -0.000429      0.000265
      9.04019     -7.57311     -1.45745        -0.033985     -0.000012      0.003198
      9.04019    -10.09748     -5.82978        -0.028163     -0.001913     -0.002025
     11.04791    -20.19496    -11.65957         0.010726     -0.000584      0.000394
     11.04791    -15.14622     -2.91489         0.008648     -0.000725      0.000295
     11.04791    -17.67059     -7.28723         0.007120      0.008219     -0.004330
     11.04791    -10.09748    -11.65957         0.009504      0.000600      0.000118
     11.04791     -5.04874     -2.91489         0.007826     -0.000339      0.000137
     11.04791     -7.57311     -7.28723         0.009603      0.000007     -0.000905
     11.04791    -15.14622    -11.65957         0.007718      0.000059      0.008574
     11.04791    -10.09748     -2.91489         0.009219      0.001526      0.001190
     11.04791    -12.62185     -7.28723         0.007146     -0.008752     -0.005842
     13.05800      0.00000      0.00000         0.033610     -0.000024      0.000788
     13.05800    -17.67059     -4.37234         0.029601      0.000608      0.000263
     13.05800    -20.19496     -8.74468         0.028929     -0.001097     -0.001267
     13.05800     -5.04874      0.00000         0.028920      0.000504     -0.000263
     13.05800     -7.57311     -4.37234         0.020820      0.000280     -0.000244
     13.05800    -10.09748     -8.74468         0.027187      0.002727     -0.001558
     13.05800    -10.09748      0.00000         0.028819     -0.000357      0.000761
     13.05800    -12.62185     -4.37234         0.024691     -0.000933      0.000213
     13.05800    -15.14622     -8.74468         0.021643     -0.001659     -0.000134
     15.05437     -2.52437     -1.45745        -0.056035      0.000596      0.000065
     15.05437     -5.04874     -5.82978        -0.057002     -0.001992      0.001439
     15.05437     -7.57311    -10.20212        -0.055814      0.000895     -0.001576
     15.05437     -7.57311     -1.45745        -0.057378      0.000439     -0.001744
     15.05437    -10.09748     -5.82978        -0.037372      0.004201      0.003628
     15.05437    -12.62185    -10.20212        -0.055060     -0.005761      0.000773
[...]
     13.05800     -8.83530     -6.55851         0.024189      0.002131     -0.001834
     13.05800    -16.40841    -10.93084         0.029490     -0.001181      0.001072
     13.05800    -11.35967     -2.18617         0.021464     -0.000172      0.001366
     13.05800    -13.88404     -6.55851         0.025869     -0.001733     -0.000042
     15.05437     -8.83530    -12.38829        -0.055739     -0.001612      0.001621
     15.05437     -3.78656     -3.64361        -0.056474      0.001103     -0.001069
     15.05437     -6.31093     -8.01595        -0.056480     -0.000340     -0.000689
     15.05437    -13.88404    -12.38829        -0.056390      0.002431      0.001672
     15.05437     -8.83530     -3.64361        -0.054079     -0.002865      0.003424
     15.05437    -11.35967     -8.01595        -0.034135      0.000346     -0.004001
     15.05437    -18.93278    -12.38829        -0.054539     -0.000962     -0.004521
     15.05437    -13.88404     -3.64361        -0.050625      0.001783      0.003828
     15.05437    -16.40841     -8.01595        -0.054386     -0.000184      0.000940
     19.05000    -11.36000     -5.10000         0.003545      0.006905    -14.772044
     19.05000    -11.36000     -6.56000        -0.003686     -0.005975     14.778805
    total drift:                               -0.468146      0.001251      0.005681

  FREE ENERGIE OF THE ION-ELECTRON SYSTEM (eV)
  free  energy   TOTEN  =     -1301.13092456 eV

  energy  without entropy=    -1299.74142402  energy(sigma->0) =    -1300.43617429