 vasp.5.4.4.18Apr17-6-g9f103f2a35 (build May 02 2017 15:33:50) complex

 executed on Intel-16.0.3.210-OMP date 2018.07.08  13:39:14

 INCAR:
 POTCAR:    PAW Al_GW 19Mar2012
 POTCAR:    PAW_PBE N 08Apr2002

 POTCAR:    PAW Al_GW 19Mar2012
   VRHFIN =Al: s2p1

   TITEL  = PAW Al_GW 19Mar2012
   POMASS =   26.982; ZVAL   =    3.000    mass and valenz
   ENMAX  =  240.300; ENMIN  =  180.225 eV

 POTCAR:    PAW_PBE N 08Apr2002
   VRHFIN =N: s2p3

   TITEL  = PAW_PBE N 08Apr2002
   POMASS =   14.001; ZVAL   =    5.000    mass and valenz
   ENMAX  =  400.000; ENMIN  =  300.000 eV

 Optimization of the real space projectors (new method)

 maximal supplied QI-value         = 18.90
 optimisation between [QCUT,QGAM] = [  8.69, 17.57] = [ 21.16, 86.49] Ry
 Optimized for a Real-space Cutoff    1.59 Angstroem

   l    n(q)    QCUT    max X(q) W(low)/X(q) W(high)/X(q)  e(spline)
   0      8     8.693    11.519    0.12E-03    0.31E-04    0.21E-06
   0      8     8.693     5.834    0.89E-04    0.32E-04    0.16E-06
   1      8     8.693    10.132    0.25E-03    0.39E-03    0.25E-06
   1      8     8.693     3.004    0.16E-03    0.27E-03    0.22E-06
   2      7     8.693     3.169    0.39E-03    0.93E-03    0.44E-06
   2      7     8.693     1.605    0.70E-04    0.91E-04    0.19E-06
 Optimization of the real space projectors (new method)

 maximal supplied QI-value         = 25.13
 optimisation between [QCUT,QGAM] = [  8.80, 17.59] = [ 21.67, 86.68] Ry
 Optimized for a Real-space Cutoff    2.14 Angstroem

   l    n(q)    QCUT    max X(q) W(low)/X(q) W(high)/X(q)  e(spline)
   0     11     8.797    79.467    0.70E-04    0.19E-04    0.19E-05
   0     11     8.797    66.151    0.68E-04    0.18E-04    0.19E-05
   1     11     8.797     6.738    0.26E-03    0.11E-02    0.73E-05
   1     11     8.797     5.013    0.25E-03    0.11E-02    0.72E-05
  PAW Al_GW 19Mar2012                   :
  PAW_PBE N 08Apr2002                   :

 POSCAR: New structure
  positions in direct lattice
 exchange correlation table for  LEXCH =        8
   RHO(1)=    0.500       N(1)  =     2000
   RHO(2)=  100.500       N(2)  =     4000

 ion  position               nearest neighbor table
   1  0.444  0.444  0.079-
   2  0.444  0.778  0.079-
   3  0.444  0.111  0.079-
   4  0.778  0.444  0.079-
   5  0.778  0.778  0.079-
   6  0.778  0.111  0.079-
   7  0.111  0.444  0.079-
   8  0.111  0.778  0.079-
   9  0.111  0.111  0.079-
  10  0.556  0.556  0.157-
  11  0.556  0.889  0.157-
  12  0.556  0.222  0.157-
  13  0.889  0.556  0.157-
  14  0.889  0.889  0.157-
  15  0.889  0.222  0.157-
  16  0.222  0.556  0.157-
  17  0.222  0.889  0.157-
  18  0.222  0.222  0.157-
  19  0.667  0.667  0.234-
  20  0.667  0.000  0.234-
  21  0.667  0.333  0.234-
  22  0.000  0.667  0.234-
  23  0.000  0.000  0.234-
  24  0.000  0.333  0.234-
  25  0.333  0.667  0.234-
  26  0.333  0.000  0.234-
  27  0.333  0.333  0.234-
  28  0.778  0.778  0.312-
  29  0.778  0.111  0.312-
  30  0.778  0.444  0.312-
  31  0.111  0.778  0.312-
  32  0.111  0.111  0.312-
  33  0.111  0.444  0.312-
  34  0.444  0.778  0.312-
  35  0.444  0.111  0.312-
  36  0.444  0.444  0.312-
  37  0.889  0.889  0.390-
  38  0.889  0.222  0.390-
  39  0.889  0.556  0.390-
  40  0.222  0.889  0.390-
  41  0.222  0.222  0.390-
  42  0.222  0.556  0.390-
  43  0.556  0.889  0.390-
  44  0.556  0.222  0.390-
  45  0.556  0.556  0.390-
  46  0.000  0.000  0.466-
  47  0.000  0.333  0.466-
  48  0.000  0.667  0.466-
  49  0.333  0.000  0.466-
  50  0.333  0.333  0.466-
  51  0.333  0.667  0.466-
  52  0.667  0.000  0.466-
  53  0.667  0.333  0.466-
  54  0.667  0.667  0.466-
  55  0.111  0.111  0.545-
  56  0.111  0.444  0.545-
  57  0.111  0.778  0.545-
  58  0.444  0.111  0.545-
  59  0.444  0.444  0.545- 253 2.14
  60  0.444  0.778  0.545-
  61  0.778  0.111  0.545-
  62  0.778  0.444  0.545-
  63  0.778  0.778  0.545-
  64  0.278  0.278  0.079-
  65  0.278  0.611  0.079-
  66  0.278  0.944  0.079-
  67  0.611  0.278  0.079-
  68  0.611  0.611  0.079-
  69  0.611  0.944  0.079-
  70  0.944  0.278  0.079-
  71  0.944  0.611  0.079-
  72  0.944  0.944  0.079-
  73  0.389  0.389  0.157-
  74  0.389  0.722  0.157-
  75  0.389  0.056  0.157-
  76  0.722  0.389  0.157-
  77  0.722  0.722  0.157-
  78  0.722  0.056  0.157-
  79  0.056  0.389  0.157-
  80  0.056  0.722  0.157-
  81  0.056  0.056  0.157-
  82  0.500  0.500  0.234-
  83  0.500  0.833  0.234-
  84  0.500  0.167  0.234-
  85  0.833  0.500  0.234-
  86  0.833  0.833  0.234-
  87  0.833  0.167  0.234-
  88  0.167  0.500  0.234-
  89  0.167  0.833  0.234-
  90  0.167  0.167  0.234-
  91  0.611  0.611  0.312-
  92  0.611  0.944  0.312-
  93  0.611  0.278  0.312-
  94  0.944  0.611  0.312-
  95  0.944  0.944  0.312-
  96  0.944  0.278  0.312-
  97  0.278  0.611  0.312-
  98  0.278  0.944  0.312-
  99  0.278  0.278  0.312-
 100  0.722  0.722  0.390-
 101  0.722  0.056  0.390-
 102  0.722  0.389  0.390-
 103  0.056  0.722  0.390-
 104  0.056  0.056  0.390-
 105  0.056  0.389  0.390-
 106  0.389  0.722  0.390-
 107  0.389  0.056  0.390-
 108  0.389  0.389  0.390-
 109  0.833  0.833  0.466-
 110  0.833  0.167  0.466-
 111  0.833  0.500  0.466-
 112  0.167  0.833  0.466-
 113  0.167  0.167  0.466-
 114  0.167  0.500  0.466-
 115  0.500  0.833  0.466-
 116  0.500  0.167  0.466-
 117  0.500  0.500  0.466-
 118  0.944  0.944  0.545-
 119  0.944  0.278  0.545-
 120  0.944  0.611  0.545-
 121  0.278  0.944  0.545-
 122  0.278  0.278  0.545-
 123  0.278  0.611  0.545- 253 2.14
 124  0.611  0.944  0.545-
 125  0.611  0.278  0.545-
 126  0.611  0.611  0.545-
 127  0.278  0.444  0.079-
 128  0.278  0.778  0.079-
 129  0.278  0.111  0.079-
 130  0.611  0.444  0.079-
 131  0.611  0.778  0.079-
 132  0.611  0.111  0.079-
 133  0.944  0.444  0.079-
 134  0.944  0.778  0.079-
 135  0.944  0.111  0.079-
 136  0.389  0.556  0.157-
 137  0.389  0.889  0.157-
 138  0.389  0.222  0.157-
 139  0.722  0.556  0.157-
 140  0.722  0.889  0.157-
 141  0.722  0.222  0.157-
 142  0.056  0.556  0.157-
 143  0.056  0.889  0.157-
 144  0.056  0.222  0.157-
 145  0.500  0.667  0.234-
 146  0.500  0.000  0.234-
 147  0.500  0.333  0.234-
 148  0.833  0.667  0.234-
 149  0.833  0.000  0.234-
 150  0.833  0.333  0.234-
 151  0.167  0.667  0.234-
 152  0.167  0.000  0.234-
 153  0.167  0.333  0.234-
 154  0.611  0.778  0.312-
 155  0.611  0.111  0.312-
 156  0.611  0.444  0.312-
 157  0.944  0.778  0.312-
 158  0.944  0.111  0.312-
 159  0.944  0.444  0.312-
 160  0.278  0.778  0.312-
 161  0.278  0.111  0.312-
 162  0.278  0.444  0.312-
 163  0.722  0.889  0.390-
 164  0.722  0.222  0.390-
 165  0.722  0.556  0.390-
 166  0.056  0.889  0.390-
 167  0.056  0.222  0.390-
 168  0.056  0.556  0.390-
 169  0.389  0.889  0.390-
 170  0.389  0.222  0.390-
 171  0.389  0.556  0.390-
 172  0.833  0.000  0.466-
 173  0.833  0.333  0.466-
 174  0.833  0.667  0.466-
 175  0.167  0.000  0.466-
 176  0.167  0.333  0.466-
 177  0.167  0.667  0.466-
 178  0.500  0.000  0.466-
 179  0.500  0.333  0.466-
 180  0.500  0.667  0.466-
 181  0.944  0.111  0.545-
 182  0.944  0.444  0.545-
 183  0.944  0.778  0.545-
[...]
 234  0.556  0.389  0.390-
 235  0.000  0.833  0.466-
 236  0.000  0.167  0.466-
 237  0.000  0.500  0.466-
 238  0.333  0.833  0.466-
 239  0.333  0.167  0.466-
 240  0.333  0.500  0.466-
 241  0.667  0.833  0.466-
 242  0.667  0.167  0.466-
 243  0.667  0.500  0.466-
 244  0.111  0.944  0.545-
 245  0.111  0.278  0.545-
 246  0.111  0.611  0.545-
 247  0.444  0.944  0.545-
 248  0.444  0.278  0.545-
 249  0.444  0.611  0.545- 253 2.14
 250  0.778  0.944  0.545-
 251  0.778  0.278  0.545-
 252  0.778  0.611  0.545-
 253  0.389  0.556  0.590- 123 2.14  59 2.14 249 2.14

  LATTYP: Found a hexagonal cell.
 ALAT       =    17.1805734625
 C/A-ratio  =     1.7461582447

  Lattice vectors:

 A1 = (   0.0000000000,  -8.5902867312,  14.8788130701)
 A2 = (   0.0000000000,  17.1805734625,   0.0000000000)
 A3 = ( -30.0000000000,   0.0000000000,   0.0000000000)

Analysis of symmetry for initial positions (statically):
 Subroutine PRICEL returns:
 Original cell was already a primitive cell.

 Routine SETGRP: Setting up the symmetry group for a
 hexagonal supercell.

 Subroutine GETGRP returns: Found  6 space group operations
 (whereof  1 operations were pure point group operations)
 out of a pool of 24 trial point group operations.

The static configuration has the point symmetry C_1 .
 The point group associated with its full space group is C_3v.

Analysis of symmetry for dynamics (positions and initial velocities):
 Subroutine PRICEL returns:
 Original cell was already a primitive cell.

 Routine SETGRP: Setting up the symmetry group for a
 hexagonal supercell.

 Subroutine GETGRP returns: Found  6 space group operations
 (whereof  1 operations were pure point group operations)
 out of a pool of 24 trial point group operations.

The dynamic configuration has the point symmetry C_1 .
 The point group associated with its full space group is C_3v.

 Subroutine INISYM returns: Found  6 space group operations
 (whereof  1 operations are pure point group operations),
 and found     1 'primitive' translations

 KPOINTS: Automatic generation

Automatic generation of k-mesh.
Space group operators:
 irot       det(A)        alpha          n_x          n_y          n_z        tau_x        tau_y        tau_z
    1     1.000000     0.000000     1.000000     0.000000     0.000000     0.000000     0.000000     0.000000
    2     1.000000   120.000000     1.000000     0.000000     0.000000    -0.166667    -0.500000     0.000000
    3     1.000000   120.000000    -1.000000     0.000000     0.000000     0.333333    -0.833333     0.000000
    4    -1.000000   180.000000     0.000000    -0.500000     0.866025     0.833333    -0.833333     0.000000
    5    -1.000000   180.000000     0.000000     1.000000     0.000000    -0.666667     0.000000     0.000000
    6    -1.000000   180.000000     0.000000     0.500000     0.866025     0.000000    -0.500000     0.000000

 Subroutine IBZKPT returns following result:

 Found      2 irreducible k-points:

 Following reciprocal coordinates:
            Coordinates               Weight
  0.000000  0.000000  0.000000      1.000000
  0.500000  0.000000  0.000000      3.000000

 Following cartesian coordinates:
            Coordinates               Weight
  0.000000  0.000000  0.000000      1.000000
  0.000000 -0.029103  0.016802      3.000000

 SYSTEM =  NiAl
 POSCAR =  New structure

 Startparameter for this run:
   NWRITE =      2    write-flag & timer
   PREC   = normal    normal or accurate (medium, high low for compatibility)
   ISTART =      0    job   : 0-new  1-cont  2-samecut
   ICHARG =      2    charge: 1-file 2-atom 10-const
   ISPIN  =      1    spin polarized calculation?
   LNONCOLLINEAR =      F non collinear calculations
   LSORBIT =      F    spin-orbit coupling
   INIWAV =      1    electr: 0-lowe 1-rand  2-diag
   LASPH  =      F    aspherical Exc in radial PAW
   METAGGA=      F    non-selfconsistent MetaGGA calc.

 Electronic Relaxation 1
   ENCUT  =  300.0 eV  22.05 Ry    4.70 a.u.  24.26 24.26 42.37*2*pi/ulx,y,z
   ENINI  =  300.0     initial cutoff
[...]

 FORCES acting on ions
    electron-ion (+dipol)            ewald-force                    non-local-force                 convergence-correction
   0.315E+03 -.525E-04 -.506E+00   -.314E+03 -.490E-11 0.426E+00   -.961E+00 0.506E-17 0.798E-01   0.747E-04 0.170E-12 -.643E-04
   0.314E+03 0.298E+00 0.116E+00   -.313E+03 -.279E+00 -.119E+00   -.891E+00 -.194E-01 0.309E-02   0.113E-04 0.173E-03 0.133E-03
   0.314E+03 -.133E+00 0.870E-01   -.313E+03 0.101E+00 -.512E-01   -.864E+00 0.319E-01 -.358E-01   -.173E-04 0.899E-04 -.103E-03
   0.314E+03 0.134E+00 0.957E-01   -.313E+03 -.114E+00 -.926E-01   -.799E+00 -.196E-01 -.330E-02   0.446E-04 0.745E-04 0.108E-03
   0.314E+03 0.162E-04 0.161E+00   -.313E+03 -.396E-11 -.116E+00   -.840E+00 0.751E-17 -.452E-01   -.857E-04 -.721E-09 0.159E-03
   0.314E+03 0.133E+00 0.869E-01   -.313E+03 -.101E+00 -.512E-01   -.864E+00 -.319E-01 -.358E-01   -.173E-04 -.899E-04 -.103E-03
   0.314E+03 -.133E+00 0.957E-01   -.313E+03 0.114E+00 -.926E-01   -.799E+00 0.196E-01 -.330E-02   0.446E-04 -.745E-04 0.108E-03
   0.314E+03 -.298E+00 0.116E+00   -.313E+03 0.279E+00 -.119E+00   -.891E+00 0.194E-01 0.309E-02   0.113E-04 -.173E-03 0.133E-03
   0.314E+03 0.499E-04 0.113E+00   -.313E+03 -.274E-11 -.628E-01   -.785E+00 -.856E-17 -.504E-01   0.651E-04 0.984E-09 0.382E-04
   0.212E+03 0.425E+00 -.436E-01   -.211E+03 -.391E+00 0.417E-01   -.224E+00 -.337E-01 0.211E-02   -.286E-03 0.169E-03 0.406E-04
   0.211E+03 -.852E-02 0.159E+00   -.211E+03 -.219E-01 -.121E+00   -.115E+00 0.303E-01 -.369E-01   -.339E-03 0.215E-03 -.332E-04
   0.211E+03 0.147E-04 -.318E+00   -.211E+03 -.492E-12 0.294E+00   -.179E+00 -.401E-18 0.254E-01   -.320E-03 -.541E-09 -.280E-03
   0.211E+03 -.301E-04 0.951E-01   -.211E+03 -.656E-12 -.752E-01   -.158E+00 -.696E-18 -.197E-01   -.275E-03 -.399E-09 0.178E-03
   0.211E+03 0.851E-02 0.159E+00   -.211E+03 0.219E-01 -.121E+00   -.115E+00 -.303E-01 -.369E-01   -.339E-03 -.215E-03 -.332E-04
   0.211E+03 -.215E-01 -.137E+00   -.211E+03 -.119E-01 0.114E+00   -.162E+00 0.335E-01 0.231E-01   -.204E-03 -.102E-03 -.108E-03
   0.212E+03 -.424E+00 -.436E-01   -.211E+03 0.391E+00 0.417E-01   -.224E+00 0.337E-01 0.211E-02   -.286E-03 -.169E-03 0.406E-04
   0.211E+03 0.203E-04 0.188E+00   -.211E+03 0.230E-11 -.199E+00   -.177E+00 0.821E-18 0.118E-01   -.255E-03 0.672E-09 -.193E-05
   0.211E+03 0.215E-01 -.137E+00   -.211E+03 0.119E-01 0.114E+00   -.162E+00 -.335E-01 0.231E-01   -.204E-03 0.102E-03 -.108E-03
   0.106E+03 0.273E+00 0.346E-01   -.106E+03 -.316E+00 -.546E-01   0.128E+00 0.421E-01 0.197E-01   -.329E-03 0.149E-03 0.211E-03
   0.106E+03 0.327E-04 0.195E-01   -.106E+03 0.479E-11 0.402E-02   0.929E-01 0.153E-17 -.233E-01   -.307E-03 -.476E-09 -.135E-03
   0.106E+03 0.380E+00 -.519E+00   -.106E+03 -.349E+00 0.467E+00   0.142E+00 -.313E-01 0.522E-01   -.285E-03 -.454E-04 -.153E-03
   0.106E+03 -.273E+00 0.346E-01   -.106E+03 0.316E+00 -.546E-01   0.128E+00 -.421E-01 0.197E-01   -.329E-03 -.149E-03 0.211E-03
   0.106E+03 -.160E+00 0.876E-01   -.106E+03 0.153E+00 -.113E+00   0.143E+00 0.740E-02 0.249E-01   -.283E-03 -.223E-03 -.833E-04
   0.106E+03 -.165E-04 0.134E+00   -.106E+03 -.905E-12 -.929E-01   0.124E+00 -.110E-18 -.410E-01   -.243E-03 0.334E-09 0.159E-03
   0.106E+03 -.990E-05 0.302E+00   -.106E+03 0.326E-11 -.287E+00   0.228E+00 -.373E-18 -.146E-01   -.369E-03 0.412E-10 0.104E-04
   0.106E+03 0.160E+00 0.875E-01   -.106E+03 -.153E+00 -.113E+00   0.143E+00 -.740E-02 0.249E-01   -.283E-03 0.223E-03 -.833E-04
   0.106E+03 -.380E+00 -.519E+00   -.106E+03 0.349E+00 0.467E+00   0.142E+00 0.313E-01 0.522E-01   -.285E-03 0.454E-04 -.153E-03
   0.188E+01 0.751E-05 0.252E-01   -.191E+01 -.702E-12 -.382E-01   0.269E-01 0.260E-18 0.122E-01   -.244E-03 -.710E-09 0.205E-03
   0.238E+01 -.125E+00 -.416E+00   -.238E+01 0.755E-01 0.418E+00   0.376E-03 0.504E-01 -.136E-02   -.168E-03 -.225E-03 -.199E-03
   0.268E+01 0.529E+00 -.980E-01   -.269E+01 -.536E+00 0.932E-01   0.135E-01 0.654E-02 0.472E-02   -.115E-03 0.449E-04 0.163E-03
   0.276E+01 -.775E+00 0.671E+00   -.279E+01 0.748E+00 -.657E+00   0.320E-01 0.266E-01 -.135E-01   -.139E-03 -.289E-03 0.457E-04
   0.226E+01 0.332E-04 0.641E-01   -.222E+01 0.344E-11 -.543E-01   -.338E-01 -.797E-18 -.996E-02   -.973E-04 0.414E-09 -.107E-03
   0.268E+01 -.529E+00 -.980E-01   -.269E+01 0.536E+00 0.932E-01   0.135E-01 -.654E-02 0.472E-02   -.115E-03 -.449E-04 0.163E-03
   0.276E+01 0.774E+00 0.671E+00   -.279E+01 -.748E+00 -.657E+00   0.320E-01 -.266E-01 -.135E-01   -.139E-03 0.289E-03 0.457E-04
   0.238E+01 0.125E+00 -.416E+00   -.238E+01 -.755E-01 0.418E+00   0.376E-03 -.504E-01 -.136E-02   -.168E-03 0.225E-03 -.199E-03
   0.347E+01 -.397E-04 -.693E+00   -.343E+01 -.149E-11 0.695E+00   -.388E-01 0.445E-19 -.218E-02   -.165E-03 0.235E-08 -.407E-04
   -.102E+03 -.698E+00 0.311E+00   0.102E+03 0.647E+00 -.295E+00   -.146E+00 0.510E-01 -.161E-01   0.135E-03 -.245E-03 -.581E-04
   -.102E+03 0.331E+00 -.459E+00   0.102E+03 -.327E+00 0.447E+00   -.118E+00 -.410E-02 0.121E-01   0.152E-03 -.232E-03 -.481E-04
   -.102E+03 -.452E-04 0.168E+00   0.102E+03 -.395E-11 -.195E+00   -.878E-01 0.126E-17 0.269E-01   0.137E-03 -.723E-10 0.357E-03
   -.100E+03 0.419E-04 0.146E+01   0.101E+03 -.212E-11 -.150E+01   -.159E+00 0.128E-18 0.395E-01   0.439E-04 0.159E-08 -.747E-04
   -.102E+03 -.331E+00 -.459E+00   0.102E+03 0.327E+00 0.447E+00   -.118E+00 0.410E-02 0.121E-01   0.152E-03 0.232E-03 -.481E-04
   -.996E+02 -.213E+01 0.200E+00   0.997E+02 0.210E+01 -.177E+00   -.170E+00 0.315E-01 -.229E-01   -.174E-04 0.949E-05 0.850E-04
   -.102E+03 0.698E+00 0.311E+00   0.102E+03 -.647E+00 -.295E+00   -.146E+00 -.510E-01 -.161E-01   0.135E-03 0.245E-03 -.581E-04
   -.101E+03 0.124E-04 -.174E+01   0.101E+03 -.431E-12 0.174E+01   -.135E+00 0.747E-17 0.617E-03   0.879E-04 -.852E-09 -.305E-03
   -.996E+02 0.213E+01 0.200E+00   0.997E+02 -.210E+01 -.177E+00   -.170E+00 -.315E-01 -.229E-01   -.174E-04 -.949E-05 0.850E-04
   -.208E+03 -.724E+00 0.116E+01   0.208E+03 0.734E+00 -.117E+01   0.132E+00 -.985E-02 0.749E-02   0.305E-03 -.258E-03 -.227E-03
   -.208E+03 -.232E-04 -.957E-01   0.208E+03 0.167E-11 0.115E+00   0.116E+00 -.110E-18 -.187E-01   0.259E-03 -.738E-09 0.132E-03
   -.208E+03 -.225E+01 0.905E+00   0.208E+03 0.228E+01 -.930E+00   0.206E+00 -.312E-01 0.249E-01   0.290E-03 -.121E-03 0.214E-03
   -.208E+03 0.724E+00 0.116E+01   0.208E+03 -.734E+00 -.117E+01   0.132E+00 0.985E-02 0.749E-02   0.305E-03 0.258E-03 -.227E-03
   -.205E+03 -.241E+01 -.343E+01   0.205E+03 0.240E+01 0.338E+01   0.116E+00 0.321E-02 0.513E-01   0.257E-03 0.138E-03 -.900E-04
   -.198E+03 -.451E-04 0.554E+01   0.198E+03 0.204E-11 -.548E+01   0.124E+00 -.892E-18 -.617E-01   0.364E-03 0.274E-08 -.805E-04
   -.209E+03 0.488E-04 -.767E+00   0.208E+03 -.146E-11 0.787E+00   0.199E+00 0.115E-17 -.202E-01   0.352E-03 0.676E-09 -.620E-04
   -.205E+03 0.241E+01 -.343E+01   0.205E+03 -.240E+01 0.338E+01   0.116E+00 -.321E-02 0.513E-01   0.257E-03 -.138E-03 -.900E-04
   -.208E+03 0.225E+01 0.905E+00   0.208E+03 -.228E+01 -.930E+00   0.206E+00 0.312E-01 0.249E-01   0.290E-03 0.121E-03 0.214E-03
   -.314E+03 0.820E-04 0.116E+01   0.313E+03 0.223E-12 -.116E+01   0.854E+00 -.970E-18 0.215E-02   0.573E-04 -.575E-10 -.551E-04
   -.313E+03 -.396E+01 -.115E+01   0.312E+03 0.395E+01 0.110E+01   0.801E+00 0.111E-01 0.475E-01   0.124E-03 0.122E-03 0.226E-03
   -.312E+03 -.636E+01 0.708E+01   0.311E+03 0.629E+01 -.708E+01   0.840E+00 0.750E-01 0.571E-02   0.181E-03 -.163E-03 -.504E-05
   -.313E+03 -.508E+00 -.210E+01   0.313E+03 0.483E+00 0.209E+01   0.873E+00 0.242E-01 0.836E-02   0.260E-03 0.237E-03 -.488E-04
   -.289E+03 0.729E-04 -.570E+02   0.290E+03 -.295E-12 0.543E+02   -.290E+00 0.178E-16 0.274E+01   0.438E-03 0.363E-08 -.520E-03
   -.312E+03 0.636E+01 0.708E+01   0.311E+03 -.629E+01 -.708E+01   0.840E+00 -.750E-01 0.571E-02   0.181E-03 0.163E-03 -.505E-05
[...]
   -.198E+03 -.480E+01 -.277E+01   0.198E+03 0.474E+01 0.274E+01   0.124E+00 0.534E-01 0.308E-01   0.364E-03 0.697E-04 0.403E-04
   -.209E+03 0.664E+00 0.383E+00   0.208E+03 -.682E+00 -.394E+00   0.199E+00 0.175E-01 0.101E-01   0.352E-03 0.537E-04 0.310E-04
   -.208E+03 0.341E+00 -.240E+01   0.208E+03 -.335E+00 0.244E+01   0.206E+00 -.593E-02 -.394E-01   0.290E-03 -.124E-03 -.212E-03
   -.205E+03 0.418E+01 -.367E+00   0.205E+03 -.413E+01 0.390E+00   0.116E+00 -.460E-01 -.229E-01   0.257E-03 0.887E-05 0.165E-03
   -.313E+03 -.986E+00 0.401E+01   0.312E+03 0.102E+01 -.397E+01   0.801E+00 -.356E-01 -.334E-01   0.124E-03 -.134E-03 -.219E-03
   -.314E+03 -.100E+01 -.579E+00   0.313E+03 0.100E+01 0.580E+00   0.854E+00 -.186E-02 -.108E-02   0.573E-04 0.477E-04 0.276E-04
   -.312E+03 -.931E+01 0.197E+01   0.311E+03 0.928E+01 -.190E+01   0.840E+00 0.326E-01 -.678E-01   0.181E-03 -.772E-04 0.144E-03
   -.313E+03 0.156E+01 0.149E+01   0.313E+03 -.157E+01 -.146E+01   0.873E+00 0.488E-02 -.252E-01   0.260E-03 0.161E-03 -.181E-03
   -.312E+03 -.295E+01 -.905E+01   0.311E+03 0.299E+01 0.899E+01   0.840E+00 -.425E-01 0.621E-01   0.181E-03 0.859E-04 -.139E-03
   -.289E+03 0.494E+02 0.285E+02   0.290E+03 -.470E+02 -.272E+02   -.290E+00 -.237E+01 -.137E+01   0.438E-03 0.450E-03 0.260E-03
   -.313E+03 -.660E+00 -.381E+00   0.312E+03 0.664E+00 0.383E+00   0.877E+00 -.397E-02 -.229E-02   0.371E-03 -.885E-04 -.511E-04
   -.313E+03 0.298E+01 -.286E+01   0.312E+03 -.293E+01 0.287E+01   0.801E+00 -.467E-01 -.141E-01   0.124E-03 -.257E-03 -.703E-05
   -.313E+03 0.207E+01 0.608E+00   0.313E+03 -.205E+01 -.625E+00   0.873E+00 -.194E-01 0.168E-01   0.260E-03 -.765E-04 0.230E-03
   -.565E+03 0.176E-03 -.519E-04   0.577E+03 -.499E-11 0.893E-11   -.113E+02 -.105E-17 0.296E-17   0.147E-02 0.173E-07 -.448E-08
   0.143E+02 0.552E-03 -.299E-03   0.364E-11 -.768E-13 0.583E-14   -.143E+02 0.108E-14 0.168E-16   -.270E-02 0.134E-07 -.617E-08

 POSITION                                       TOTAL-FORCE (eV/Angst)
      2.35478    -11.45372     -6.61747         0.000120     -0.000000     -0.000122
      2.37468    -14.31263    -11.57284        -0.000403      0.000123     -0.000084
      2.37218     -8.59257     -1.65212         0.000042      0.000120     -0.000162
      2.36887    -17.18210     -6.61136        -0.000120     -0.000177     -0.000110
      2.35502    -20.04400    -11.56854         0.000361      0.000000     -0.000042
      2.37218    -14.31486     -1.65212         0.000042     -0.000120     -0.000162
      2.36887     -5.72533     -6.61136        -0.000120      0.000177     -0.000110
      2.37468     -8.59480    -11.57284        -0.000403     -0.000123     -0.000084
      2.35908     -2.86343     -1.65191         0.000186     -0.000000      0.000308
      4.71094    -14.31058     -8.26553        -0.000122     -0.000417      0.000206
      4.71038    -17.18215    -13.22364         0.000396      0.000135      0.000151
      4.71908    -11.45372     -3.30870         0.000443      0.000000      0.000462
      4.71707    -20.04400     -8.26337         0.000290      0.000000      0.000297
      4.71038    -22.90585    -13.22364         0.000396     -0.000135      0.000151
      4.71342    -17.18253     -3.30831         0.000147      0.000010      0.000286
      4.71094     -8.59685     -8.26553        -0.000122      0.000417      0.000206
      4.71456    -11.45372    -13.22242         0.000138     -0.000000      0.000265
      4.71342     -5.72490     -3.30831         0.000147     -0.000010      0.000286
      7.02108    -17.18009     -9.92067         0.000056     -0.000104     -0.000144
      7.01515    -11.45372      0.00330         0.000229      0.000000      0.000107
      7.01748    -14.31195     -4.96589        -0.000295     -0.000138     -0.000037
      7.02108     -5.72734     -9.92067         0.000056      0.000104     -0.000144
      7.01824     -0.00167     -0.00003         0.000135      0.000051     -0.000318
      7.01864     -2.86343     -4.95617         0.000027      0.000000     -0.000027
      7.01772    -11.45372     -9.91534        -0.000648      0.000000      0.000462
      7.01824     -5.72519     -0.00003         0.000135     -0.000051     -0.000318
      7.01748     -8.59548     -4.96589        -0.000295      0.000138     -0.000037
      9.35383    -20.04400    -11.57387         0.000781     -0.000000     -0.000576
      9.35110    -14.32043     -1.65564         0.000108      0.000167      0.000004
      9.35138    -17.17652     -6.61422        -0.000192     -0.000256      0.000082
      9.35269     -8.59431    -11.56662        -0.000503      0.000172      0.000124
      9.35817     -2.86343     -1.65284         0.000413     -0.000000     -0.000289
      9.35138     -5.73091     -6.61422        -0.000192      0.000256      0.000082
      9.35269    -14.31312    -11.56662        -0.000503     -0.000172      0.000124
      9.35110     -8.58700     -1.65564         0.000108     -0.000167      0.000004
      9.36066    -11.45372     -6.61307        -0.000423      0.000000      0.000088
     11.69113    -22.91157    -13.22389         0.000088     -0.000224      0.000020
     11.68836    -17.17758     -3.30632        -0.000175      0.000279      0.000013
     11.68788    -20.04400     -8.26701         0.000372     -0.000000     -0.000258
     11.68636    -11.45372    -13.22580        -0.000071      0.000000      0.000038
     11.68836     -5.72985     -3.30632        -0.000175     -0.000279      0.000013
     11.69973     -8.59805     -8.26576        -0.000214     -0.000060      0.000012
     11.69113    -17.17643    -13.22389         0.000088      0.000224      0.000020
     11.69807    -11.45372     -3.31374         0.000454      0.000000      0.000728
     11.69973    -14.30938     -8.26576        -0.000214      0.000060      0.000012
     13.99349      0.00424      0.00106        -0.000052      0.000216      0.000190
     13.98641     -2.86343     -4.95853        -0.000151     -0.000000      0.000498
     13.99842     -5.72711     -9.92307         0.000015      0.000147      0.000186
     13.99349     -5.73110      0.00106        -0.000052     -0.000216      0.000190
     13.97946     -8.58174     -4.94393        -0.000744      0.000263      0.000114
     13.99668    -11.45372     -9.92635        -0.000482     -0.000000      0.000612
     13.98733    -11.45372     -0.00224         0.000496     -0.000000      0.000126
     13.97946    -14.32569     -4.94393        -0.000744     -0.000263      0.000114
     13.99842    -17.18032     -9.92307         0.000015     -0.000147      0.000186
     16.33189     -2.86343     -1.65698        -0.000140     -0.000000     -0.000150
     16.33731     -5.70214     -6.60938        -0.000210     -0.000060      0.000130
     16.35677     -8.60435    -11.58006        -0.000166     -0.000214      0.000775
     16.34315     -8.59475     -1.65180        -0.000030     -0.000124     -0.000369
     16.44395    -11.45372     -6.55252         0.000298     -0.000000      0.000361
     16.35677    -14.30308    -11.58006        -0.000166      0.000214      0.000775
[...]
     13.99349     -7.16161     -2.47666        -0.000052     -0.000272      0.000092
     13.99668    -10.01581     -7.43583        -0.000482     -0.000530     -0.000306
     13.98733    -18.61035    -12.39789         0.000496     -0.000109     -0.000063
     13.99842    -12.88196     -2.47809         0.000015     -0.000234      0.000034
     13.97946    -15.76670     -7.43984        -0.000744     -0.000230      0.000171
     16.33731    -10.01261    -14.07533        -0.000210     -0.000142     -0.000013
     16.33189     -4.29187     -4.13111        -0.000140      0.000130      0.000075
     16.35677     -7.15898     -9.07660        -0.000166     -0.000778     -0.000203
     16.34315    -15.75230    -14.04905        -0.000030      0.000258      0.000292
     16.35677    -10.00835     -4.14136        -0.000166     -0.000565     -0.000573
     16.44395    -12.93764     -9.12275         0.000298     -0.000313     -0.000181
     16.32711    -21.47611    -14.05244         0.000933     -0.000104     -0.000060
     16.33731    -15.76418     -4.11331        -0.000210     -0.000082     -0.000117
     16.34315    -18.61127     -9.09717        -0.000030      0.000382      0.000077
     17.14580    -11.45372     -8.26601        -0.001309     -0.000000      0.000000
    total drift:                                0.013380      0.000552     -0.000299

  FREE ENERGIE OF THE ION-ELECTRON SYSTEM (eV)
  free  energy   TOTEN  =      -928.73344754 eV

  energy  without entropy=     -928.65774868  energy(sigma->0) =     -928.69559811

 d Force = 0.6248470E-05[ 0.104E-06, 0.124E-04]  d Energy = 0.6877137E-05-0.629E-06
 d Force =-0.1536318E+01[-0.154E+01,-0.154E+01]  d Ewald  =-0.1536318E+01-0.611E-09

 reached required accuracy - stopping structural energy minimisation