 vasp.5.4.4.18Apr17-6-g9f103f2a35 (build May 02 2017 15:33:50) complex

 executed on Intel-16.0.3.210-OMP date 2018.08.08  17:44:26

 INCAR:
 POTCAR:    PAW Al_GW 19Mar2012
 POTCAR:    PAW_PBE N 08Apr2002

 POTCAR:    PAW Al_GW 19Mar2012
   VRHFIN =Al: s2p1

   TITEL  = PAW Al_GW 19Mar2012
   POMASS =   26.982; ZVAL   =    3.000    mass and valenz
   ENMAX  =  240.300; ENMIN  =  180.225 eV

 POTCAR:    PAW_PBE N 08Apr2002
   VRHFIN =N: s2p3

   TITEL  = PAW_PBE N 08Apr2002
   POMASS =   14.001; ZVAL   =    5.000    mass and valenz
   ENMAX  =  400.000; ENMIN  =  300.000 eV

 Optimization of the real space projectors (new method)

 maximal supplied QI-value         = 18.90
 optimisation between [QCUT,QGAM] = [  8.69, 17.57] = [ 21.16, 86.49] Ry
 Optimized for a Real-space Cutoff    1.59 Angstroem

   l    n(q)    QCUT    max X(q) W(low)/X(q) W(high)/X(q)  e(spline)
   0      8     8.693    11.519    0.12E-03    0.31E-04    0.21E-06
   0      8     8.693     5.834    0.89E-04    0.32E-04    0.16E-06
   1      8     8.693    10.132    0.25E-03    0.39E-03    0.25E-06
   1      8     8.693     3.004    0.16E-03    0.27E-03    0.22E-06
   2      7     8.693     3.169    0.39E-03    0.93E-03    0.44E-06
   2      7     8.693     1.605    0.70E-04    0.91E-04    0.19E-06
 Optimization of the real space projectors (new method)

 maximal supplied QI-value         = 25.13
 optimisation between [QCUT,QGAM] = [  8.80, 17.59] = [ 21.67, 86.68] Ry
 Optimized for a Real-space Cutoff    2.14 Angstroem

   l    n(q)    QCUT    max X(q) W(low)/X(q) W(high)/X(q)  e(spline)
   0     11     8.797    79.467    0.70E-04    0.19E-04    0.19E-05
   0     11     8.797    66.151    0.68E-04    0.18E-04    0.19E-05
   1     11     8.797     6.738    0.26E-03    0.11E-02    0.73E-05
   1     11     8.797     5.013    0.25E-03    0.11E-02    0.72E-05
  PAW Al_GW 19Mar2012                   :
  PAW_PBE N 08Apr2002                   :

 POSCAR: New structure
  positions in cartesian coordinates
 exchange correlation table for  LEXCH =        8
   RHO(1)=    0.500       N(1)  =     2000
   RHO(2)=  100.500       N(2)  =     4000

 ion  position               nearest neighbor table
   1  0.444  0.444  0.079-
   2  0.444  0.778  0.079-
   3  0.444  0.111  0.079-
   4  0.778  0.444  0.079-
   5  0.778  0.778  0.079-
   6  0.778  0.111  0.079-
   7  0.111  0.444  0.079-
   8  0.111  0.778  0.079-
   9  0.111  0.111  0.079-
  10  0.556  0.556  0.157-
  11  0.556  0.889  0.157-
  12  0.556  0.222  0.157-
  13  0.889  0.556  0.157-
  14  0.889  0.889  0.157-
  15  0.889  0.222  0.157-
  16  0.222  0.556  0.157-
  17  0.222  0.889  0.157-
  18  0.222  0.222  0.157-
  19  0.667  0.667  0.234-
  20  0.667  0.000  0.234-
  21  0.667  0.333  0.234-
  22  0.000  0.667  0.234-
  23  0.000  0.000  0.234-
  24  0.000  0.333  0.234-
  25  0.333  0.667  0.234-
  26  0.333  0.000  0.234-
  27  0.333  0.333  0.234-
  28  0.778  0.778  0.312-
  29  0.778  0.111  0.312-
  30  0.778  0.444  0.312-
  31  0.111  0.778  0.312-
  32  0.111  0.111  0.312-
  33  0.111  0.444  0.312-
  34  0.444  0.778  0.312-
  35  0.444  0.111  0.312-
  36  0.444  0.444  0.312-
  37  0.889  0.889  0.390-
  38  0.889  0.222  0.390-
  39  0.889  0.556  0.390-
  40  0.222  0.889  0.390-
  41  0.222  0.222  0.390-
  42  0.222  0.556  0.390-
  43  0.556  0.889  0.390-
  44  0.556  0.222  0.390-
  45  0.556  0.556  0.390-
  46  0.000  0.000  0.466-
  47  0.000  0.333  0.466-
  48  0.000  0.667  0.466-
  49  0.333  0.000  0.466-
  50  0.333  0.333  0.466-
  51  0.333  0.667  0.466-
  52  0.667  0.000  0.466-
  53  0.667  0.333  0.466-
  54  0.667  0.667  0.466-
  55  0.111  0.111  0.545-
  56  0.111  0.444  0.545-
  57  0.111  0.778  0.545-
  58  0.444  0.111  0.545-
  59  0.444  0.444  0.545- 253 1.79 254 1.79
  60  0.444  0.778  0.545-
  61  0.778  0.111  0.545-
  62  0.778  0.444  0.545-
  63  0.778  0.778  0.545-
  64  0.278  0.278  0.079-
  65  0.278  0.611  0.079-
  66  0.278  0.944  0.079-
  67  0.611  0.278  0.079-
  68  0.611  0.611  0.079-
  69  0.611  0.944  0.079-
  70  0.944  0.278  0.079-
  71  0.944  0.611  0.079-
  72  0.944  0.944  0.079-
  73  0.389  0.389  0.157-
  74  0.389  0.722  0.157-
  75  0.389  0.056  0.157-
  76  0.722  0.389  0.157-
  77  0.722  0.722  0.157-
  78  0.722  0.056  0.157-
  79  0.056  0.389  0.157-
  80  0.056  0.722  0.157-
  81  0.056  0.056  0.157-
  82  0.500  0.500  0.234-
  83  0.500  0.833  0.234-
  84  0.500  0.167  0.234-
  85  0.833  0.500  0.234-
  86  0.833  0.833  0.234-
  87  0.833  0.167  0.234-
  88  0.167  0.500  0.234-
  89  0.167  0.833  0.234-
  90  0.167  0.167  0.234-
  91  0.611  0.611  0.312-
  92  0.611  0.944  0.312-
  93  0.611  0.278  0.312-
  94  0.944  0.611  0.312-
  95  0.944  0.944  0.312-
  96  0.944  0.278  0.312-
  97  0.278  0.611  0.312-
  98  0.278  0.944  0.312-
  99  0.278  0.278  0.312-
 100  0.722  0.722  0.390-
 101  0.722  0.056  0.390-
 102  0.722  0.389  0.390-
 103  0.056  0.722  0.390-
 104  0.056  0.056  0.390-
 105  0.056  0.389  0.390-
 106  0.389  0.722  0.390-
 107  0.389  0.056  0.390-
 108  0.389  0.389  0.390-
 109  0.833  0.833  0.466-
 110  0.833  0.167  0.466-
 111  0.833  0.500  0.466-
 112  0.167  0.833  0.466-
 113  0.167  0.167  0.466-
 114  0.167  0.500  0.466-
 115  0.500  0.833  0.466-
 116  0.500  0.167  0.466-
 117  0.500  0.500  0.466-
 118  0.944  0.944  0.545-
 119  0.944  0.278  0.545-
 120  0.944  0.611  0.545-
 121  0.278  0.944  0.545-
 122  0.278  0.278  0.545-
 123  0.278  0.611  0.545- 253 1.79
 124  0.611  0.944  0.545-
 125  0.611  0.278  0.545-
 126  0.611  0.611  0.545-
 127  0.278  0.444  0.079-
 128  0.278  0.778  0.079-
 129  0.278  0.111  0.079-
 130  0.611  0.444  0.079-
 131  0.611  0.778  0.079-
 132  0.611  0.111  0.079-
 133  0.944  0.444  0.079-
 134  0.944  0.778  0.079-
 135  0.944  0.111  0.079-
 136  0.389  0.556  0.157-
 137  0.389  0.889  0.157-
 138  0.389  0.222  0.157-
 139  0.722  0.556  0.157-
 140  0.722  0.889  0.157-
 141  0.722  0.222  0.157-
 142  0.056  0.556  0.157-
 143  0.056  0.889  0.157-
 144  0.056  0.222  0.157-
 145  0.500  0.667  0.234-
 146  0.500  0.000  0.234-
 147  0.500  0.333  0.234-
 148  0.833  0.667  0.234-
 149  0.833  0.000  0.234-
 150  0.833  0.333  0.234-
 151  0.167  0.667  0.234-
 152  0.167  0.000  0.234-
 153  0.167  0.333  0.234-
 154  0.611  0.778  0.312-
 155  0.611  0.111  0.312-
 156  0.611  0.444  0.312-
 157  0.944  0.778  0.312-
 158  0.944  0.111  0.312-
 159  0.944  0.444  0.312-
 160  0.278  0.778  0.312-
 161  0.278  0.111  0.312-
 162  0.278  0.444  0.312-
 163  0.722  0.889  0.390-
 164  0.722  0.222  0.390-
 165  0.722  0.556  0.390-
 166  0.056  0.889  0.390-
 167  0.056  0.222  0.390-
 168  0.056  0.556  0.390-
 169  0.389  0.889  0.390-
 170  0.389  0.222  0.390-
 171  0.389  0.556  0.390-
 172  0.833  0.000  0.466-
 173  0.833  0.333  0.466-
 174  0.833  0.667  0.466-
 175  0.167  0.000  0.466-
 176  0.167  0.333  0.466-
 177  0.167  0.667  0.466-
 178  0.500  0.000  0.466-
 179  0.500  0.333  0.466-
 180  0.500  0.667  0.466-
 181  0.944  0.111  0.545-
 182  0.944  0.444  0.545-
 183  0.944  0.778  0.545-
 184  0.278  0.111  0.545-
 185  0.278  0.444  0.545- 253 1.79 254 1.79
 186  0.278  0.778  0.545-
 187  0.611  0.111  0.545-
 188  0.611  0.444  0.545-
 189  0.611  0.778  0.545-
 190  0.444  0.278  0.079-
 191  0.444  0.611  0.079-
 192  0.444  0.944  0.079-
 193  0.778  0.278  0.079-
 194  0.778  0.611  0.079-
 195  0.778  0.944  0.079-
 196  0.111  0.278  0.079-
 197  0.111  0.611  0.079-
 198  0.111  0.944  0.079-
 199  0.556  0.389  0.157-
 200  0.556  0.722  0.157-
 201  0.556  0.056  0.157-
 202  0.889  0.389  0.157-
 203  0.889  0.722  0.157-
 204  0.889  0.056  0.157-
 205  0.222  0.389  0.157-
 206  0.222  0.722  0.157-
 207  0.222  0.056  0.157-
 208  0.667  0.500  0.234-
 209  0.667  0.833  0.234-
 210  0.667  0.167  0.234-
 211  1.000  0.500  0.234-
 212  1.000  0.833  0.234-
 213  1.000  0.167  0.234-
 214  0.333  0.500  0.234-
 215  0.333  0.833  0.234-
 216  0.333  0.167  0.234-
 217  0.778  0.611  0.312-
 218  0.778  0.944  0.312-
 219  0.778  0.278  0.312-
 220  0.111  0.611  0.312-
 221  0.111  0.944  0.312-
 222  0.111  0.278  0.312-
 223  0.444  0.611  0.312-
 224  0.444  0.944  0.312-
 225  0.444  0.278  0.312-
 226  0.889  0.722  0.390-
 227  0.889  0.056  0.390-
 228  0.889  0.389  0.390-
 229  0.222  0.722  0.390-
 230  0.222  0.056  0.390-
 231  0.222  0.389  0.390-
 232  0.556  0.722  0.390-
 233  0.556  0.056  0.390-
 234  0.556  0.389  0.390-
 235  1.000  0.833  0.466-
 236  1.000  0.167  0.466-
 237  1.000  0.500  0.466-
 238  0.333  0.833  0.466-
 239  0.333  0.167  0.466-
 240  0.333  0.500  0.466-
 241  0.667  0.833  0.466-
 242  0.667  0.167  0.466-
 243  0.667  0.500  0.466-
 244  0.111  0.944  0.545-
 245  0.111  0.278  0.545-
 246  0.111  0.611  0.545-
 247  0.444  0.944  0.545-
 248  0.444  0.278  0.545- 254 1.79
 249  0.444  0.611  0.545-
 250  0.778  0.944  0.545-
 251  0.778  0.278  0.545-
 252  0.778  0.611  0.545-
 253  0.333  0.500  0.568- 254 1.65 185 1.79 123 1.79  59 1.79
 254  0.389  0.389  0.568- 253 1.65 248 1.79 185 1.79  59 1.79

  LATTYP: Found a hexagonal cell.
 ALAT       =    17.1805734625
 C/A-ratio  =     1.7461582447

  Lattice vectors:

 A1 = (   0.0000000000,  -8.5902867312,  14.8788130701)
 A2 = (   0.0000000000,  17.1805734625,   0.0000000000)
 A3 = ( -30.0000000000,   0.0000000000,   0.0000000000)

Analysis of symmetry for initial positions (statically):
 Subroutine PRICEL returns:
 Original cell was already a primitive cell.

 Routine SETGRP: Setting up the symmetry group for a
 hexagonal supercell.

 Subroutine GETGRP returns: Found  2 space group operations
 (whereof  1 operations were pure point group operations)
 out of a pool of 24 trial point group operations.

The static configuration has the point symmetry C_1 .
 The point group associated with its full space group is C_1h.

Analysis of symmetry for dynamics (positions and initial velocities):
 Subroutine PRICEL returns:
 Original cell was already a primitive cell.

 Routine SETGRP: Setting up the symmetry group for a
 hexagonal supercell.

 Subroutine GETGRP returns: Found  2 space group operations
 (whereof  1 operations were pure point group operations)
 out of a pool of 24 trial point group operations.

The dynamic configuration has the point symmetry C_1 .
 The point group associated with its full space group is C_1h.

 Subroutine INISYM returns: Found  2 space group operations
 (whereof  1 operations are pure point group operations),
 and found     1 'primitive' translations

 KPOINTS: Automatic generation

Automatic generation of k-mesh.
Space group operators:
 irot       det(A)        alpha          n_x          n_y          n_z        tau_x        tau_y        tau_z
    1     1.000000     0.000000     1.000000     0.000000     0.000000     0.000000     0.000000     0.000000
    2    -1.000000   180.000000     0.000000     1.000000     0.000000    -0.833333     0.000000     0.000000

 Subroutine IBZKPT returns following result:

 Found      3 irreducible k-points:

 Following reciprocal coordinates:
[...]
    30.000000000  0.000000000  0.000000000     0.033333333  0.000000000  0.000000000

  length of vectors
    17.180573462 17.180573462 30.000000000     0.067209662  0.067209662  0.033333333

 FORCES acting on ions
    electron-ion (+dipol)            ewald-force                    non-local-force                 convergence-correction
   0.314E+03 0.146E+00 0.141E-02   -.313E+03 -.658E-01 0.316E-03   -.967E+00 -.550E-01 0.396E-03   0.591E-04 0.124E-06 0.414E-05
   0.314E+03 0.618E-01 0.656E-01   -.313E+03 -.644E-01 -.617E-01   -.821E+00 -.426E-02 -.830E-02   0.531E-04 -.514E-05 -.138E-05
   0.314E+03 -.265E-01 -.109E+00   -.313E+03 0.327E-01 0.118E+00   -.852E+00 0.132E-02 -.718E-02   0.565E-04 -.347E-05 0.414E-05
   0.314E+03 0.620E-01 -.352E-01   -.313E+03 -.644E-01 0.296E-03   -.831E+00 -.366E-02 0.270E-01   0.524E-04 -.214E-06 -.232E-05
   0.314E+03 -.449E-01 -.531E-02   -.313E+03 0.315E-01 -.567E-02   -.859E+00 0.374E-02 0.835E-02   0.541E-04 0.373E-05 -.387E-05
   0.314E+03 0.986E-01 -.732E-01   -.313E+03 -.644E-01 0.617E-01   -.817E+00 -.391E-01 0.901E-02   0.514E-04 0.500E-05 0.128E-05
   0.314E+03 -.177E+00 0.688E-03   -.313E+03 0.130E+00 0.353E-03   -.852E+00 0.483E-01 0.530E-02   0.553E-04 0.131E-06 0.109E-05
   0.314E+03 -.468E-01 0.135E+00   -.313E+03 0.328E-01 -.118E+00   -.843E+00 0.545E-02 -.168E-01   0.520E-04 0.259E-05 0.469E-06
   0.314E+03 -.532E-01 0.165E-01   -.313E+03 0.316E-01 0.563E-02   -.813E+00 0.224E-01 -.218E-01   0.467E-04 -.235E-05 0.414E-07
   0.212E+03 0.199E+00 0.851E-01   -.212E+03 -.207E+00 -.775E-01   -.157E+00 0.275E-02 -.921E-02   0.171E-04 0.250E-05 0.141E-05
   0.212E+03 0.174E-01 -.668E-01   -.212E+03 -.171E-01 0.638E-01   -.165E+00 0.362E-02 0.109E-01   0.572E-05 -.497E-05 -.220E-05
   0.212E+03 0.555E-01 -.189E+00   -.212E+03 -.856E-01 0.193E+00   -.213E+00 0.209E-01 -.923E-02   0.203E-04 0.580E-05 -.117E-05
   0.212E+03 -.100E+00 0.414E-01   -.212E+03 0.101E+00 -.377E-01   -.154E+00 -.498E-02 -.129E-01   0.953E-05 -.131E-05 -.366E-05
   0.212E+03 -.528E-01 0.231E-01   -.212E+03 0.369E-01 -.410E-01   -.110E+00 0.143E-01 0.119E-01   0.515E-05 0.796E-05 0.144E-05
   0.212E+03 0.711E-01 -.306E-01   -.212E+03 -.812E-01 0.457E-01   -.143E+00 0.106E-01 -.114E-01   0.414E-05 0.475E-05 -.400E-05
   0.213E+03 -.120E+00 0.135E+00   -.212E+03 0.107E+00 -.119E+00   -.224E+00 0.322E-02 -.241E-02   0.255E-04 -.202E-05 0.582E-05
   0.212E+03 0.134E-01 0.132E+00   -.212E+03 -.197E-01 -.146E+00   -.126E+00 0.165E-02 0.782E-02   0.491E-05 -.344E-05 0.478E-05
   0.212E+03 -.161E+00 -.106E+00   -.212E+03 0.167E+00 0.118E+00   -.116E+00 -.342E-02 -.143E-01   0.120E-04 -.938E-05 -.250E-05
   0.107E+03 0.161E+00 0.904E-01   -.107E+03 -.189E+00 -.105E+00   0.127E+00 0.228E-01 0.125E-01   -.405E-04 0.234E-05 0.670E-06
   0.107E+03 0.463E-01 -.348E+00   -.108E+03 -.494E-01 0.346E+00   0.165E+00 -.203E-02 -.518E-02   -.404E-04 0.694E-05 -.954E-05
   0.108E+03 0.507E+00 -.187E+00   -.108E+03 -.506E+00 0.189E+00   0.162E+00 0.634E-02 -.596E-02   -.302E-04 0.165E-04 -.695E-05
   0.108E+03 -.382E+00 0.282E+00   -.108E+03 0.402E+00 -.286E+00   0.182E+00 -.167E-01 0.682E-02   -.344E-04 -.495E-05 0.904E-05
   0.107E+03 0.169E-01 0.117E+00   -.107E+03 -.370E-01 -.148E+00   0.143E+00 0.170E-01 0.235E-01   -.456E-04 0.640E-05 0.382E-05
   0.107E+03 -.230E+00 -.568E-01   -.108E+03 0.237E+00 0.864E-01   0.156E+00 -.790E-02 -.193E-01   -.380E-04 -.862E-05 -.966E-05
   0.108E+03 0.199E+00 0.469E+00   -.108E+03 -.214E+00 -.479E+00   0.205E+00 0.175E-01 0.193E-01   -.296E-04 0.363E-05 0.176E-04
   0.107E+03 -.651E-01 -.101E+00   -.108E+03 0.865E-01 0.969E-01   0.176E+00 -.220E-01 -.619E-04   -.422E-04 -.130E-04 -.323E-05
   0.108E+03 -.276E+00 -.340E+00   -.109E+03 0.271E+00 0.300E+00   0.230E+00 0.443E-02 0.201E-01   -.238E-04 -.935E-05 -.436E-05
   0.421E+01 -.292E+00 0.398E-01   -.421E+01 0.280E+00 -.555E-01   0.268E-02 0.155E-01 0.176E-01   -.321E-04 -.197E-05 0.274E-05
   0.475E+01 0.608E+00 -.623E+00   -.473E+01 -.639E+00 0.630E+00   -.181E-01 0.131E-01 0.282E-02   -.316E-04 0.191E-04 -.125E-04
   0.451E+01 0.611E+00 0.263E-01   -.452E+01 -.634E+00 0.356E-03   0.369E-02 0.128E-01 -.101E-01   -.270E-04 0.852E-05 -.603E-05
   0.538E+01 -.376E+00 0.128E+01   -.539E+01 0.365E+00 -.127E+01   0.285E-01 0.665E-02 0.189E-01   -.350E-04 -.667E-07 0.233E-04
   0.425E+01 -.312E+00 -.397E-01   -.421E+01 0.280E+00 0.554E-01   -.247E-01 0.231E-01 -.695E-02   -.313E-04 -.106E-04 -.753E-05
   0.583E+01 -.148E+01 -.124E-01   -.583E+01 0.147E+01 0.418E-03   -.706E-03 0.639E-02 0.149E-01   -.299E-04 -.167E-04 -.363E-06
   0.471E+01 0.636E+00 0.666E+00   -.473E+01 -.639E+00 -.630E+00   0.953E-02 -.374E-02 -.360E-01   -.322E-04 -.233E-07 0.127E-04
   0.536E+01 -.396E+00 -.128E+01   -.539E+01 0.365E+00 0.127E+01   0.315E-01 0.113E-01 -.280E-02   -.333E-04 -.824E-05 -.173E-04
   0.757E+01 0.912E+00 -.179E-02   -.757E+01 -.866E+00 0.368E-03   0.444E-01 -.158E-01 0.109E-02   -.287E-04 0.947E-05 0.589E-05
   -.992E+02 -.500E+00 0.587E+00   0.993E+02 0.486E+00 -.569E+00   -.148E+00 0.278E-02 -.181E-01   -.155E-04 0.785E-05 0.458E-05
   -.994E+02 0.981E+00 -.524E+00   0.996E+02 -.102E+01 0.545E+00   -.159E+00 0.336E-01 -.246E-01   -.993E-05 0.867E-05 -.150E-04
   -.991E+02 -.137E+01 0.460E+00   0.993E+02 0.135E+01 -.445E+00   -.154E+00 0.144E-01 0.454E-02   -.125E-04 -.188E-05 0.340E-05
   -.987E+02 0.330E+00 0.206E+01   0.988E+02 -.344E+00 -.205E+01   -.148E+00 0.174E-01 -.587E-02   -.154E-04 -.511E-05 0.127E-04
   -.975E+02 -.261E+01 -.187E+01   0.976E+02 0.264E+01 0.188E+01   -.136E+00 -.405E-01 -.509E-02   -.109E-04 -.201E-04 -.152E-04
   -.914E+02 -.261E+01 0.282E+01   0.916E+02 0.262E+01 -.281E+01   -.198E+00 -.106E-01 0.253E-01   -.621E-05 -.894E-05 0.227E-04
   -.994E+02 0.142E+00 -.764E+00   0.996E+02 -.154E+00 0.792E+00   -.166E+00 0.973E-03 -.403E-01   -.143E-04 -.171E-05 -.268E-05
   -.943E+02 0.175E+01 -.387E+01   0.945E+02 -.179E+01 0.389E+01   -.193E+00 0.223E-01 -.972E-02   -.760E-05 0.107E-04 -.211E-04
   -.964E+02 0.360E+01 0.130E+01   0.966E+02 -.362E+01 -.132E+01   -.156E+00 0.144E-01 0.211E-01   -.142E-04 0.117E-04 0.112E-04
   -.207E+03 0.214E+00 0.142E+01   0.207E+03 -.236E+00 -.146E+01   0.146E+00 0.843E-02 0.737E-02   0.976E-05 0.606E-05 -.274E-05
   -.206E+03 -.252E+01 -.777E+00   0.206E+03 0.257E+01 0.804E+00   0.157E+00 -.544E-01 -.281E-01   0.933E-05 -.665E-05 -.105E-04
   -.204E+03 -.595E+01 0.420E+01   0.204E+03 0.590E+01 -.416E+01   0.188E+00 0.378E-01 -.358E-01   0.984E-05 -.948E-05 0.175E-04
   -.206E+03 -.900E+00 -.107E+01   0.206E+03 0.925E+00 0.111E+01   0.138E+00 -.187E-01 -.412E-01   0.872E-05 -.119E-04 -.832E-05
   -.185E+03 -.111E+02 -.108E+02   0.185E+03 0.110E+02 0.109E+02   -.617E-01 0.155E+00 -.322E-01   0.102E-04 -.133E-04 -.885E-05
   -.196E+03 0.567E+01 0.117E+02   0.196E+03 -.563E+01 -.118E+02   0.219E+00 -.212E-01 0.517E-01   0.177E-04 0.897E-05 0.336E-04
   -.206E+03 0.721E+00 -.411E+01   0.206E+03 -.746E+00 0.412E+01   0.137E+00 0.234E-01 0.179E-01   0.117E-04 0.700E-05 -.165E-04
   -.202E+03 0.897E+01 -.311E+01   0.202E+03 -.891E+01 0.317E+01   0.146E+00 -.373E-01 -.582E-01   0.130E-04 0.256E-04 -.769E-05
   -.207E+03 0.183E+01 0.949E+00   0.206E+03 -.188E+01 -.981E+00   0.148E+00 0.345E-01 0.146E-01   0.694E-05 -.186E-05 0.706E-05
   -.313E+03 -.141E+01 -.350E+00   0.312E+03 0.142E+01 0.328E+00   0.812E+00 -.161E-01 0.582E-02   0.104E-04 -.664E-05 -.978E-05
   -.310E+03 -.191E+02 0.222E-01   0.309E+03 0.192E+02 0.324E-03   0.939E+00 -.277E+00 -.207E-01   -.878E-06 -.201E-04 0.461E-05
   -.311E+03 -.423E+01 0.135E+02   0.310E+03 0.420E+01 -.136E+02   0.879E+00 0.163E-01 0.101E+00   0.763E-05 -.382E-05 0.289E-04
   -.311E+03 -.422E+01 -.136E+02   0.310E+03 0.420E+01 0.136E+02   0.876E+00 0.494E-02 -.321E-01   0.102E-05 -.981E-05 -.247E-04
   -.261E+03 0.109E+03 0.339E+00   0.261E+03 -.106E+03 0.511E-04   -.146E+01 -.620E+01 -.172E+00   -.416E-04 -.639E-04 0.942E-06
   -.313E+03 0.456E+01 0.462E+01   0.312E+03 -.455E+01 -.461E+01   0.840E+00 -.119E-01 -.764E-03   0.809E-05 0.209E-05 0.131E-04
[...]
   -.207E+03 0.138E-04 -.879E+00   0.207E+03 0.477E-04 0.851E+00   0.186E+00 -.704E-18 0.377E-01   0.889E-05 0.155E-07 0.142E-05
   -.203E+03 0.505E+01 -.682E+01   0.202E+03 -.504E+01 0.672E+01   0.114E+00 -.254E-01 0.100E+00   0.146E-04 0.188E-04 -.245E-04
   -.205E+03 0.597E+01 0.864E+00   0.205E+03 -.598E+01 -.859E+00   0.195E+00 -.137E-01 -.171E-01   0.857E-05 0.119E-04 0.467E-05
   -.313E+03 0.115E-03 0.444E+01   0.312E+03 -.816E-04 -.439E+01   0.820E+00 -.257E-17 -.777E-01   0.137E-04 0.336E-07 0.537E-05
   -.312E+03 -.707E+01 -.299E+01   0.312E+03 0.705E+01 0.291E+01   0.820E+00 0.293E-01 0.729E-01   0.458E-05 -.181E-04 -.102E-04
   -.308E+03 -.222E+02 0.166E+02   0.307E+03 0.218E+02 -.163E+02   0.527E+00 0.791E+00 -.534E+00   -.338E-05 -.102E-04 0.154E-04
   -.313E+03 -.366E+00 -.213E+01   0.312E+03 0.343E+00 0.213E+01   0.856E+00 0.498E-02 -.931E-02   0.768E-05 -.933E-05 -.849E-05
   -.283E+03 -.929E-04 -.795E+02   0.283E+03 0.183E-03 0.791E+02   0.166E-01 -.248E-16 0.208E+01   -.296E-04 -.647E-07 0.409E-04
   -.308E+03 0.222E+02 0.166E+02   0.307E+03 -.218E+02 -.163E+02   0.527E+00 -.791E+00 -.534E+00   -.342E-05 0.101E-04 0.155E-04
   -.313E+03 0.366E+00 -.213E+01   0.312E+03 -.343E+00 0.213E+01   0.856E+00 -.498E-02 -.931E-02   0.767E-05 0.930E-05 -.856E-05
   -.312E+03 0.707E+01 -.299E+01   0.312E+03 -.705E+01 0.291E+01   0.820E+00 -.293E-01 0.729E-01   0.452E-05 0.182E-04 -.102E-04
   -.313E+03 -.901E-04 0.897E+00   0.312E+03 0.208E-04 -.922E+00   0.851E+00 -.272E-17 0.164E-01   0.741E-07 0.607E-07 0.435E-05
   -.575E+03 -.151E-02 0.119E+03   0.587E+03 -.199E-04 -.131E+03   -.967E+01 0.382E-15 0.114E+02   0.191E-04 -.549E-07 -.117E-03
   -.574E+03 0.120E-02 -.118E+03   0.586E+03 -.332E-03 0.131E+03   -.956E+01 0.183E-15 -.120E+02   -.120E-03 -.763E-07 0.247E-03
   0.268E+02 0.152E-02 0.993E+00   -.307E-11 0.732E-13 -.284E-13   -.265E+02 -.222E-14 -.993E+00   -.237E-03 -.127E-06 0.126E-03

 POSITION                                       TOTAL-FORCE (eV/Angst)
      2.36204    -11.45372     -6.61281         0.003089      0.025301      0.002144
      2.36204    -14.31714    -11.57241         0.030268     -0.006829     -0.004388
      2.36204     -8.59029     -1.65320         0.023342      0.007450      0.001637
      2.36204    -17.18057     -6.61281         0.007543     -0.006031     -0.007927
      2.36204    -20.04400    -11.57241         0.016194     -0.009594     -0.002672
      2.36204    -14.31714     -1.65320         0.019017     -0.004713     -0.002550
      2.36204     -5.72686     -6.61281         0.017239      0.001619      0.006323
      2.36204     -8.59029    -11.57241         0.013558     -0.008728      0.000165
      2.36204     -2.86343     -1.65320         0.005615      0.000795      0.000266
      4.71078    -14.31714     -8.26601        -0.010919     -0.005638     -0.001621
      4.71078    -17.18057    -13.22561        -0.001470      0.003896      0.007960
      4.71078    -11.45372     -3.30640         0.001444     -0.009378     -0.006008
      4.71078    -20.04400     -8.26601        -0.019714     -0.004484     -0.009175
      4.71078    -22.90743    -13.22561        -0.018084     -0.001551     -0.006047
      4.71078    -17.18057     -3.30640         0.002577      0.000481      0.003650
      4.71078     -8.59029     -8.26601         0.004961     -0.010447      0.013519
      4.71078    -11.45372    -13.22561        -0.010529     -0.004788     -0.006177
      4.71078     -5.72686     -3.30640        -0.018066      0.002775     -0.001778
      7.01272    -17.18057     -9.91921         0.033324     -0.005101     -0.002605
      7.01272    -11.45372      0.00000         0.020261     -0.005247     -0.007867
      7.01272    -14.31714     -4.95960         0.010489      0.006847     -0.004277
      7.01272     -5.72686     -9.91921         0.026874      0.003051      0.003097
      7.01272      0.00000      0.00000         0.017928     -0.003170     -0.008045
      7.01272     -2.86343     -4.95960         0.018637     -0.000642      0.010251
      7.01272    -11.45372     -9.91921         0.002314      0.002514      0.009337
      7.01272     -5.72686      0.00000         0.026369     -0.000382     -0.004610
      7.01272     -8.59029     -4.95960        -0.014553     -0.001135     -0.019902
      9.35192    -20.04400    -11.57241         0.000243      0.003393      0.001867
      9.35192    -14.31714     -1.65320        -0.004187     -0.017838      0.009966
      9.35192    -17.18057     -6.61281        -0.013465     -0.010357      0.016496
      9.35192     -8.59029    -11.57241         0.014397     -0.005291      0.025015
      9.35192     -2.86343     -1.65320         0.012088     -0.008798      0.008763
      9.35192     -5.72686     -6.61281        -0.007736     -0.005600      0.002899
      9.35192    -14.31714    -11.57241        -0.019619     -0.005966     -0.000599
      9.35192     -8.59029     -1.65320         0.003428     -0.019813     -0.012726
      9.35192    -11.45372     -6.61281         0.035793      0.030942     -0.000314
     11.69112    -22.90743    -13.22561        -0.006170     -0.011551     -0.000072
     11.69112    -17.18057     -3.30640        -0.017030     -0.004650     -0.003660
     11.69112    -20.04400     -8.26601         0.004415     -0.014677      0.019457
     11.69112    -11.45372    -13.22561        -0.012822      0.003384      0.001720
     11.69112     -5.72686     -3.30640        -0.012761     -0.009450      0.001526
     11.69112     -8.59029     -8.26601        -0.022681      0.000265      0.031285
     11.69112    -17.18057    -13.22561        -0.014517     -0.010559     -0.011591
     11.69112    -11.45372     -3.30640        -0.011469     -0.020877      0.012201
     11.69112    -14.31714     -8.26601         0.009144     -0.008574      0.003814
     13.99306      0.00000      0.00000         0.003819     -0.013777     -0.027111
     13.99306     -2.86343     -4.95960         0.025284     -0.005319     -0.001681
     13.99306     -5.72686     -9.91921         0.012317     -0.020317      0.003808
     13.99306     -5.72686      0.00000         0.014626      0.006699     -0.002742
     13.99306     -8.59029     -4.95960        -0.100829      0.054445      0.021718
     13.99306    -11.45372     -9.91921         0.002718      0.020647      0.036212
     13.99306    -11.45372      0.00000        -0.010034     -0.001382      0.030753
     13.99306    -14.31714     -4.95960         0.006456      0.015906     -0.002180
     13.99306    -17.18057     -9.91921         0.006291     -0.011852     -0.017962
     16.34180     -2.86343     -1.65320        -0.023351      0.000947     -0.016199
     16.34180     -5.72686     -6.61281         0.055273     -0.121577      0.001742
     16.34180     -8.59029    -11.57241         0.037494     -0.013593      0.000781
     16.34180     -8.59029     -1.65320         0.002308     -0.013726     -0.015591
     16.34180    -11.45372     -6.61281        -1.384189     -3.617431      0.166734
     16.34180    -14.31714    -11.57241        -0.004239      0.007029      0.009814
[...]
     13.99306    -10.02200     -7.43941        -0.671417      0.000000     -0.055819
     13.99306    -18.61229    -12.39901        -0.019997      0.000000      0.010185
     13.99306    -12.88543     -2.47980        -0.004071     -0.009685      0.004494
     13.99306    -15.74886     -7.43941        -0.015549     -0.027472     -0.011527
     16.34180    -10.02200    -14.05221        -0.004692      0.000000     -0.023461
     16.34180     -4.29514     -4.13300         0.000813      0.011322     -0.004153
     16.34180     -7.15857     -9.09261        -0.112005      0.351773     -0.194720
     16.34180    -15.74886    -14.05221        -0.009870     -0.017652     -0.005923
     16.34180    -10.02200     -4.13300        -0.515313     -0.000000      1.689647
     16.34180    -12.88543     -9.09261        -0.112005     -0.351773     -0.194720
     16.34180    -21.47572    -14.05221        -0.009870      0.017652     -0.005923
     16.34180    -15.74886     -4.13300         0.000813     -0.011322     -0.004153
     16.34180    -18.61229     -9.09261        -0.020017      0.000000     -0.009313
     17.04000    -10.02200     -7.43941         2.409689      0.000000     -0.849085
     17.04000    -10.02200     -5.78620         2.533400     -0.000000      0.803088
    total drift:                                0.257410      0.001524     -0.000485

  FREE ENERGIE OF THE ION-ELECTRON SYSTEM (eV)
  free  energy   TOTEN  =      -933.86635074 eV

  energy  without entropy=     -933.77265844  energy(sigma->0) =     -933.81950459